*SPEF "ieee 1481-1999"
*DESIGN "tt_um_flowguard_stress"
*DATE "07:09:12 Friday September 11, 2026"
*VENDOR "The OpenROAD Project"
*PROGRAM "OpenROAD"
*VERSION "dcf36133a369abc8f3c5e5738cd4d82e4903c0e0"
*DESIGN_FLOW "NAME_SCOPE LOCAL" "PIN_CAP NONE"
*DIVIDER /
*DELIMITER :
*BUS_DELIMITER []
*T_UNIT 1 NS
*C_UNIT 1 PF
*R_UNIT 1 OHM
*L_UNIT 1 HENRY

*NAME_MAP
*3 clk
*4 ena
*5 rst_n
*6 ui_in[0]
*7 ui_in[1]
*8 ui_in[2]
*9 ui_in[3]
*10 ui_in[4]
*11 ui_in[5]
*12 ui_in[6]
*13 ui_in[7]
*14 uio_in[0]
*15 uio_in[1]
*16 uio_in[2]
*17 uio_in[3]
*18 uio_in[4]
*19 uio_in[5]
*20 uio_in[6]
*21 uio_in[7]
*22 net
*23 net124
*24 net125
*25 net126
*26 net127
*27 net128
*28 net129
*29 net130
*30 net131
*31 net132
*32 net133
*33 net134
*34 net135
*35 net136
*36 net137
*37 net138
*38 uo_out[0]
*39 uo_out[1]
*40 uo_out[2]
*41 uo_out[3]
*42 uo_out[4]
*43 uo_out[5]
*44 uo_out[6]
*45 uo_out[7]
*46 _0000_
*47 _0001_
*48 _0002_
*49 _0003_
*50 _0004_
*51 _0005_
*52 _0006_
*53 _0007_
*54 _0008_
*55 _0009_
*56 _0010_
*57 _0011_
*58 _0012_
*59 _0013_
*60 _0014_
*61 _0015_
*62 _0016_
*63 _0017_
*64 _0018_
*65 _0019_
*66 _0020_
*67 _0021_
*68 _0022_
*69 _0023_
*70 _0024_
*71 _0025_
*72 _0026_
*73 _0027_
*74 _0028_
*75 _0029_
*76 _0030_
*77 _0031_
*78 _0032_
*79 _0033_
*80 _0034_
*81 _0035_
*82 _0036_
*83 _0037_
*84 _0038_
*85 _0039_
*86 _0040_
*87 _0041_
*88 _0042_
*89 _0043_
*90 _0044_
*91 _0045_
*92 _0046_
*93 _0047_
*94 _0048_
*95 _0049_
*96 _0050_
*97 _0051_
*98 _0052_
*99 _0053_
*100 _0054_
*101 _0055_
*102 _0056_
*103 _0057_
*104 _0058_
*105 _0059_
*106 _0060_
*107 _0061_
*108 _0062_
*109 _0063_
*110 _0064_
*111 _0065_
*112 _0066_
*113 _0067_
*114 _0068_
*115 _0069_
*116 _0070_
*117 _0071_
*118 _0072_
*119 _0073_
*120 _0074_
*121 _0075_
*122 _0076_
*123 _0077_
*124 _0078_
*125 _0079_
*126 _0080_
*127 _0081_
*128 _0082_
*129 _0083_
*130 _0084_
*131 _0085_
*132 _0086_
*133 _0087_
*134 _0088_
*135 _0089_
*136 _0090_
*137 _0091_
*138 _0092_
*139 _0093_
*140 _0094_
*141 _0095_
*142 _0096_
*143 _0097_
*144 _0098_
*145 _0099_
*146 _0100_
*147 _0101_
*148 _0102_
*149 _0103_
*150 _0104_
*151 _0105_
*152 _0106_
*153 _0107_
*154 _0108_
*155 _0109_
*156 _0110_
*157 _0111_
*158 _0112_
*159 _0113_
*160 _0114_
*161 _0115_
*162 _0116_
*163 _0117_
*164 _0118_
*165 _0119_
*166 _0120_
*167 _0121_
*168 _0122_
*169 _0123_
*170 _0124_
*171 _0125_
*172 _0126_
*173 _0127_
*174 _0128_
*175 _0129_
*176 _0130_
*177 _0131_
*178 _0132_
*179 _0133_
*180 _0134_
*181 _0135_
*182 _0136_
*183 _0137_
*184 _0138_
*185 _0139_
*186 _0140_
*187 _0141_
*188 _0142_
*189 _0143_
*190 _0144_
*191 _0145_
*192 _0146_
*193 _0147_
*194 _0148_
*195 _0149_
*196 _0150_
*197 _0151_
*198 _0152_
*199 _0153_
*200 _0154_
*201 _0155_
*202 _0156_
*203 _0157_
*204 _0158_
*205 _0159_
*206 _0160_
*207 _0161_
*208 _0162_
*209 _0163_
*210 _0164_
*211 _0165_
*212 _0166_
*213 _0167_
*214 _0168_
*215 _0169_
*216 _0170_
*217 _0171_
*218 _0172_
*219 _0173_
*220 _0174_
*221 _0175_
*222 _0176_
*223 _0177_
*224 _0178_
*225 _0179_
*226 _0180_
*227 _0181_
*228 _0182_
*229 _0183_
*230 _0184_
*231 _0185_
*232 _0186_
*233 _0187_
*234 _0188_
*235 _0189_
*236 _0190_
*237 _0191_
*238 _0192_
*239 _0193_
*240 _0194_
*241 _0195_
*242 _0196_
*243 _0197_
*244 _0198_
*245 _0199_
*246 _0200_
*247 _0201_
*248 _0202_
*249 _0203_
*250 _0204_
*251 _0205_
*252 _0206_
*253 _0207_
*254 _0208_
*255 _0209_
*256 _0210_
*257 _0211_
*258 _0212_
*259 _0213_
*260 _0214_
*261 _0215_
*262 _0216_
*263 _0217_
*264 _0218_
*265 _0219_
*266 _0220_
*267 _0221_
*268 _0222_
*269 _0223_
*270 _0224_
*271 _0225_
*272 _0226_
*273 _0227_
*274 _0228_
*275 _0229_
*276 _0230_
*277 _0231_
*278 _0232_
*279 _0233_
*280 _0234_
*281 _0235_
*282 _0236_
*283 _0237_
*284 _0238_
*285 _0239_
*286 _0240_
*287 _0241_
*288 _0242_
*289 _0243_
*290 _0244_
*291 _0245_
*292 _0246_
*293 _0247_
*294 _0248_
*295 _0249_
*296 _0250_
*297 _0251_
*298 _0252_
*299 _0253_
*300 _0254_
*301 _0255_
*302 _0256_
*303 _0257_
*304 _0258_
*305 _0259_
*306 _0260_
*307 _0261_
*308 _0262_
*309 _0263_
*310 _0264_
*311 _0265_
*312 _0266_
*313 _0267_
*314 _0268_
*315 _0269_
*316 _0270_
*317 _0271_
*318 _0272_
*319 _0273_
*320 _0274_
*321 _0275_
*322 _0276_
*323 _0277_
*324 _0278_
*325 _0279_
*326 _0280_
*327 _0281_
*328 _0282_
*329 _0283_
*330 _0284_
*331 _0285_
*332 _0286_
*333 _0287_
*334 _0288_
*335 _0289_
*336 _0290_
*337 _0291_
*338 _0292_
*339 _0293_
*340 _0294_
*341 _0295_
*342 _0296_
*343 _0297_
*344 _0298_
*345 _0299_
*346 _0300_
*347 _0301_
*348 _0302_
*349 _0303_
*350 _0304_
*351 _0305_
*352 _0306_
*353 _0307_
*354 _0308_
*355 _0309_
*356 _0310_
*357 _0311_
*358 _0312_
*359 _0313_
*360 _0314_
*361 _0315_
*362 _0316_
*363 _0317_
*364 _0318_
*365 _0319_
*366 _0320_
*367 _0321_
*368 _0322_
*369 _0323_
*370 _0324_
*371 _0325_
*372 _0326_
*373 _0327_
*374 _0328_
*375 _0329_
*376 _0330_
*377 _0331_
*378 _0332_
*379 _0333_
*380 _0334_
*381 _0335_
*382 _0336_
*383 _0337_
*384 _0338_
*385 _0339_
*386 _0340_
*387 _0341_
*388 _0342_
*389 _0343_
*390 _0344_
*391 _0345_
*392 _0346_
*393 _0347_
*394 _0348_
*395 _0349_
*396 _0350_
*397 _0351_
*398 _0352_
*399 _0353_
*400 _0354_
*401 _0355_
*402 _0356_
*403 _0357_
*404 _0358_
*405 _0359_
*406 _0360_
*407 _0361_
*408 _0362_
*409 _0363_
*410 _0364_
*411 _0365_
*412 _0366_
*413 _0367_
*414 _0368_
*415 _0369_
*416 _0370_
*417 _0371_
*418 _0372_
*419 _0373_
*420 _0374_
*421 _0375_
*422 _0376_
*423 _0377_
*424 _0378_
*425 _0379_
*426 _0380_
*427 _0381_
*428 _0382_
*429 _0383_
*430 _0384_
*431 _0385_
*432 _0386_
*433 _0387_
*434 _0388_
*435 _0389_
*436 _0390_
*437 _0391_
*438 _0392_
*439 _0393_
*440 _0394_
*441 _0395_
*442 _0396_
*443 _0397_
*444 _0398_
*445 _0399_
*446 _0400_
*447 _0401_
*448 _0402_
*449 _0403_
*450 _0404_
*451 _0405_
*452 _0406_
*453 _0407_
*454 _0408_
*455 _0409_
*456 _0410_
*457 _0411_
*458 _0412_
*459 _0413_
*460 _0414_
*461 _0415_
*462 _0416_
*463 _0417_
*464 _0418_
*465 _0419_
*466 _0420_
*467 _0421_
*468 _0422_
*469 _0423_
*470 _0424_
*471 _0425_
*472 _0426_
*473 _0427_
*474 _0428_
*475 _0429_
*476 _0430_
*477 _0431_
*478 _0432_
*479 _0433_
*480 _0434_
*481 _0435_
*482 _0436_
*483 _0437_
*484 _0438_
*485 _0439_
*486 _0440_
*487 _0441_
*488 _0442_
*489 _0443_
*490 _0444_
*491 _0445_
*492 _0446_
*493 _0447_
*494 _0448_
*495 _0449_
*496 _0450_
*497 _0451_
*498 _0452_
*499 _0453_
*500 _0454_
*501 _0455_
*502 _0456_
*503 _0457_
*504 _0458_
*505 _0459_
*506 _0460_
*507 _0461_
*508 _0462_
*509 _0463_
*510 _0464_
*511 _0465_
*512 _0466_
*513 _0467_
*514 _0468_
*515 _0469_
*516 _0470_
*517 _0471_
*518 _0472_
*519 _0473_
*520 _0474_
*521 _0475_
*522 _0476_
*523 _0477_
*524 _0478_
*525 _0479_
*526 _0480_
*527 _0481_
*528 _0482_
*529 _0483_
*530 _0484_
*531 _0485_
*532 _0486_
*533 _0487_
*534 _0488_
*535 _0489_
*536 _0490_
*537 _0491_
*538 _0492_
*539 _0493_
*540 _0494_
*541 _0495_
*542 _0496_
*543 _0497_
*544 _0498_
*545 _0499_
*546 _0500_
*547 _0501_
*548 _0502_
*549 _0503_
*550 _0504_
*551 _0505_
*552 _0506_
*553 _0507_
*554 _0508_
*555 _0509_
*556 _0510_
*557 _0511_
*558 _0512_
*559 _0513_
*560 _0514_
*561 _0515_
*562 _0516_
*563 _0517_
*564 _0518_
*565 _0519_
*566 _0520_
*567 _0521_
*568 _0522_
*569 _0523_
*570 _0524_
*571 accumulator\[0\]
*572 accumulator\[1\]
*573 accumulator\[2\]
*574 accumulator\[3\]
*575 accumulator\[4\]
*576 accumulator\[5\]
*577 accumulator\[6\]
*578 accumulator\[7\]
*579 add_stage0\.add0\.b\[0\]
*580 add_stage0\.add0\.b\[1\]
*581 add_stage0\.add0\.b\[2\]
*582 add_stage0\.add0\.b\[3\]
*583 add_stage0\.add1\.b\[0\]
*584 add_stage0\.add1\.b\[1\]
*585 add_stage0\.add1\.b\[2\]
*586 add_stage0\.add1\.b\[3\]
*587 add_stage1\.a\[0\]
*588 add_stage1\.a\[1\]
*589 add_stage1\.a\[2\]
*590 add_stage1\.a\[3\]
*591 add_stage1\.a\[4\]
*592 add_stage1\.a\[5\]
*593 add_stage1\.a\[6\]
*594 add_stage1\.a\[7\]
*595 add_stage2\.a\[0\]
*596 add_stage2\.a\[1\]
*597 add_stage2\.a\[2\]
*598 add_stage2\.a\[3\]
*599 add_stage2\.a\[4\]
*600 add_stage2\.a\[5\]
*601 add_stage2\.a\[6\]
*602 add_stage2\.a\[7\]
*603 add_stage3\.a\[0\]
*604 add_stage3\.a\[1\]
*605 add_stage3\.a\[2\]
*606 add_stage3\.a\[3\]
*607 add_stage3\.a\[4\]
*608 add_stage3\.a\[5\]
*609 add_stage3\.a\[6\]
*610 add_stage3\.a\[7\]
*611 clknet_0_clk
*612 clknet_1_0__leaf_clk
*613 clknet_1_1__leaf_clk
*614 clknet_leaf_0_clk
*615 clknet_leaf_10_clk
*616 clknet_leaf_11_clk
*617 clknet_leaf_12_clk
*618 clknet_leaf_13_clk
*619 clknet_leaf_14_clk
*620 clknet_leaf_15_clk
*621 clknet_leaf_1_clk
*622 clknet_leaf_2_clk
*623 clknet_leaf_3_clk
*624 clknet_leaf_4_clk
*625 clknet_leaf_5_clk
*626 clknet_leaf_6_clk
*627 clknet_leaf_7_clk
*628 clknet_leaf_8_clk
*629 clknet_leaf_9_clk
*630 coeff0\[0\]
*631 coeff0\[1\]
*632 coeff0\[2\]
*633 coeff0\[3\]
*634 coeff0\[4\]
*635 coeff0\[5\]
*636 coeff0\[6\]
*637 coeff0\[7\]
*638 coeff1\[0\]
*639 coeff1\[1\]
*640 coeff1\[2\]
*641 coeff1\[3\]
*642 coeff1\[4\]
*643 coeff1\[5\]
*644 coeff1\[6\]
*645 coeff1\[7\]
*646 coeff2\[0\]
*647 coeff2\[1\]
*648 coeff2\[2\]
*649 coeff2\[3\]
*650 coeff2\[4\]
*651 coeff2\[5\]
*652 coeff2\[6\]
*653 coeff2\[7\]
*654 coeff3\[0\]
*655 coeff3\[1\]
*656 coeff3\[2\]
*657 coeff3\[3\]
*658 coeff3\[4\]
*659 coeff3\[5\]
*660 coeff3\[6\]
*661 coeff3\[7\]
*662 coeff4\[0\]
*663 coeff4\[1\]
*664 coeff4\[2\]
*665 coeff4\[3\]
*666 coeff4\[4\]
*667 coeff4\[5\]
*668 coeff4\[6\]
*669 coeff4\[7\]
*670 coeff5\[0\]
*671 coeff5\[1\]
*672 coeff5\[2\]
*673 coeff5\[3\]
*674 coeff5\[4\]
*675 coeff5\[5\]
*676 coeff5\[6\]
*677 coeff5\[7\]
*678 coeff6\[0\]
*679 coeff6\[1\]
*680 coeff6\[2\]
*681 coeff6\[3\]
*682 coeff6\[4\]
*683 coeff6\[5\]
*684 coeff6\[6\]
*685 coeff6\[7\]
*686 coeff7\[0\]
*687 coeff7\[1\]
*688 coeff7\[2\]
*689 coeff7\[3\]
*690 coeff7\[4\]
*691 coeff7\[5\]
*692 coeff7\[6\]
*693 coeff7\[7\]
*694 mac_busy
*695 net1
*696 net10
*697 net100
*698 net101
*699 net102
*700 net103
*701 net104
*702 net105
*703 net106
*704 net107
*705 net108
*706 net109
*707 net11
*708 net110
*709 net111
*710 net112
*711 net113
*712 net114
*713 net115
*714 net116
*715 net117
*716 net118
*717 net119
*718 net12
*719 net120
*720 net121
*721 net122
*722 net123
*723 net13
*724 net139
*725 net14
*726 net140
*727 net141
*728 net142
*729 net143
*730 net144
*731 net145
*732 net146
*733 net147
*734 net148
*735 net149
*736 net15
*737 net150
*738 net151
*739 net152
*740 net153
*741 net154
*742 net155
*743 net156
*744 net157
*745 net158
*746 net159
*747 net16
*748 net160
*749 net161
*750 net162
*751 net163
*752 net164
*753 net165
*754 net166
*755 net167
*756 net168
*757 net169
*758 net17
*759 net170
*760 net171
*761 net172
*762 net173
*763 net174
*764 net175
*765 net176
*766 net177
*767 net178
*768 net179
*769 net18
*770 net180
*771 net181
*772 net182
*773 net183
*774 net184
*775 net185
*776 net186
*777 net187
*778 net188
*779 net189
*780 net19
*781 net190
*782 net191
*783 net192
*784 net193
*785 net194
*786 net195
*787 net196
*788 net197
*789 net198
*790 net199
*791 net2
*792 net20
*793 net200
*794 net201
*795 net202
*796 net203
*797 net204
*798 net205
*799 net206
*800 net207
*801 net208
*802 net209
*803 net21
*804 net210
*805 net211
*806 net212
*807 net213
*808 net214
*809 net215
*810 net216
*811 net217
*812 net218
*813 net219
*814 net22
*815 net220
*816 net221
*817 net222
*818 net223
*819 net224
*820 net225
*821 net226
*822 net227
*823 net228
*824 net229
*825 net23
*826 net230
*827 net231
*828 net232
*829 net233
*830 net234
*831 net235
*832 net236
*833 net237
*834 net238
*835 net239
*836 net24
*837 net240
*838 net241
*839 net242
*840 net243
*841 net244
*842 net245
*843 net246
*844 net247
*845 net248
*846 net249
*847 net25
*848 net250
*849 net251
*850 net252
*851 net253
*852 net254
*853 net255
*854 net256
*855 net257
*856 net258
*857 net259
*858 net26
*859 net260
*860 net261
*861 net262
*862 net263
*863 net264
*864 net265
*865 net266
*866 net267
*867 net268
*868 net269
*869 net27
*870 net270
*871 net271
*872 net272
*873 net273
*874 net274
*875 net275
*876 net276
*877 net277
*878 net278
*879 net279
*880 net28
*881 net280
*882 net281
*883 net282
*884 net283
*885 net284
*886 net285
*887 net286
*888 net287
*889 net288
*890 net289
*891 net29
*892 net290
*893 net291
*894 net292
*895 net293
*896 net294
*897 net295
*898 net296
*899 net297
*900 net298
*901 net299
*902 net3
*903 net30
*904 net300
*905 net301
*906 net302
*907 net303
*908 net304
*909 net305
*910 net306
*911 net307
*912 net308
*913 net309
*914 net31
*915 net310
*916 net311
*917 net312
*918 net313
*919 net314
*920 net315
*921 net316
*922 net317
*923 net318
*924 net319
*925 net32
*926 net320
*927 net321
*928 net322
*929 net323
*930 net324
*931 net325
*932 net326
*933 net327
*934 net328
*935 net329
*936 net33
*937 net330
*938 net331
*939 net332
*940 net333
*941 net334
*942 net335
*943 net336
*944 net337
*945 net338
*946 net339
*947 net34
*948 net340
*949 net341
*950 net342
*951 net343
*952 net344
*953 net345
*954 net346
*955 net347
*956 net348
*957 net349
*958 net35
*959 net350
*960 net351
*961 net352
*962 net353
*963 net354
*964 net355
*965 net356
*966 net357
*967 net358
*968 net359
*969 net36
*970 net360
*971 net361
*972 net362
*973 net363
*974 net364
*975 net365
*976 net366
*977 net367
*978 net368
*979 net369
*980 net37
*981 net370
*982 net38
*983 net39
*984 net4
*985 net40
*986 net41
*987 net42
*988 net43
*989 net44
*990 net45
*991 net46
*992 net47
*993 net48
*994 net49
*995 net5
*996 net50
*997 net51
*998 net52
*999 net53
*1000 net54
*1001 net55
*1002 net56
*1003 net57
*1004 net58
*1005 net59
*1006 net6
*1007 net60
*1008 net61
*1009 net62
*1010 net63
*1011 net64
*1012 net65
*1013 net66
*1014 net67
*1015 net68
*1016 net69
*1017 net7
*1018 net70
*1019 net71
*1020 net72
*1021 net73
*1022 net74
*1023 net75
*1024 net76
*1025 net77
*1026 net78
*1027 net79
*1028 net8
*1029 net80
*1030 net81
*1031 net82
*1032 net83
*1033 net84
*1034 net85
*1035 net86
*1036 net87
*1037 net88
*1038 net89
*1039 net9
*1040 net90
*1041 net91
*1042 net92
*1043 net93
*1044 net94
*1045 net95
*1046 net96
*1047 net97
*1048 net98
*1049 net99
*1050 phase\[0\]
*1051 phase\[1\]
*1052 phase\[2\]
*1053 phase\[3\]
*1054 phase\[4\]
*1055 phase\[5\]
*1056 snapshot0\[0\]
*1057 snapshot0\[1\]
*1058 snapshot0\[2\]
*1059 snapshot0\[3\]
*1060 snapshot0\[4\]
*1061 snapshot0\[5\]
*1062 snapshot0\[6\]
*1063 snapshot0\[7\]
*1064 snapshot1\[0\]
*1065 snapshot1\[1\]
*1066 snapshot1\[2\]
*1067 snapshot1\[3\]
*1068 snapshot1\[4\]
*1069 snapshot1\[5\]
*1070 snapshot1\[6\]
*1071 snapshot1\[7\]
*1072 snapshot2\[0\]
*1073 snapshot2\[1\]
*1074 snapshot2\[2\]
*1075 snapshot2\[3\]
*1076 snapshot2\[4\]
*1077 snapshot2\[5\]
*1078 snapshot2\[6\]
*1079 snapshot2\[7\]
*1080 snapshot3\[0\]
*1081 snapshot3\[1\]
*1082 snapshot3\[2\]
*1083 snapshot3\[3\]
*1084 snapshot3\[4\]
*1085 snapshot3\[5\]
*1086 snapshot3\[6\]
*1087 snapshot3\[7\]
*1088 snapshot4\[0\]
*1089 snapshot4\[1\]
*1090 snapshot4\[2\]
*1091 snapshot4\[3\]
*1092 snapshot4\[4\]
*1093 snapshot4\[5\]
*1094 snapshot4\[6\]
*1095 snapshot4\[7\]
*1096 snapshot5\[0\]
*1097 snapshot5\[1\]
*1098 snapshot5\[2\]
*1099 snapshot5\[3\]
*1100 snapshot5\[4\]
*1101 snapshot5\[5\]
*1102 snapshot5\[6\]
*1103 snapshot5\[7\]
*1104 snapshot6\[0\]
*1105 snapshot6\[1\]
*1106 snapshot6\[2\]
*1107 snapshot6\[3\]
*1108 snapshot6\[4\]
*1109 snapshot6\[5\]
*1110 snapshot6\[6\]
*1111 snapshot6\[7\]
*1112 snapshot7\[0\]
*1113 snapshot7\[1\]
*1114 snapshot7\[2\]
*1115 snapshot7\[3\]
*1116 snapshot7\[4\]
*1117 snapshot7\[5\]
*1118 snapshot7\[6\]
*1119 snapshot7\[7\]
*1120 stage3\[0\]
*1121 stage3\[1\]
*1122 stage3\[2\]
*1123 stage3\[3\]
*1124 stage3\[4\]
*1125 stage3\[5\]
*1126 stage3\[6\]
*1127 stage3\[7\]
*1128 tap_index\[0\]
*1129 tap_index\[1\]
*1130 tap_index\[2\]
*1131 window0\[0\]
*1132 window0\[1\]
*1133 window0\[2\]
*1134 window0\[3\]
*1135 window0\[4\]
*1136 window0\[5\]
*1137 window0\[6\]
*1138 window0\[7\]
*1139 FILLER_0_100
*1140 FILLER_0_103
*1141 FILLER_0_106
*1142 FILLER_0_109
*1143 FILLER_0_113
*1144 FILLER_0_116
*1145 FILLER_0_119
*1146 FILLER_0_12
*1147 FILLER_0_138
*1148 FILLER_0_141
*1149 FILLER_0_144
*1150 FILLER_0_147
*1151 FILLER_0_15
*1152 FILLER_0_150
*1153 FILLER_0_153
*1154 FILLER_0_156
*1155 FILLER_0_159
*1156 FILLER_0_162
*1157 FILLER_0_165
*1158 FILLER_0_177
*1159 FILLER_0_18
*1160 FILLER_0_180
*1161 FILLER_0_191
*1162 FILLER_0_194
*1163 FILLER_0_203
*1164 FILLER_0_206
*1165 FILLER_0_209
*1166 FILLER_0_21
*1167 FILLER_0_212
*1168 FILLER_0_215
*1169 FILLER_0_218
*1170 FILLER_0_221
*1171 FILLER_0_225
*1172 FILLER_0_24
*1173 FILLER_0_245
*1174 FILLER_0_248
*1175 FILLER_0_251
*1176 FILLER_0_261
*1177 FILLER_0_264
*1178 FILLER_0_267
*1179 FILLER_0_27
*1180 FILLER_0_270
*1181 FILLER_0_29
*1182 FILLER_0_290
*1183 FILLER_0_299
*1184 FILLER_0_3
*1185 FILLER_0_302
*1186 FILLER_0_305
*1187 FILLER_0_309
*1188 FILLER_0_312
*1189 FILLER_0_315
*1190 FILLER_0_318
*1191 FILLER_0_32
*1192 FILLER_0_337
*1193 FILLER_0_340
*1194 FILLER_0_343
*1195 FILLER_0_346
*1196 FILLER_0_355
*1197 FILLER_0_358
*1198 FILLER_0_361
*1199 FILLER_0_374
*1200 FILLER_0_385
*1201 FILLER_0_388
*1202 FILLER_0_391
*1203 FILLER_0_393
*1204 FILLER_0_396
*1205 FILLER_0_399
*1206 FILLER_0_402
*1207 FILLER_0_405
*1208 FILLER_0_408
*1209 FILLER_0_411
*1210 FILLER_0_414
*1211 FILLER_0_417
*1212 FILLER_0_421
*1213 FILLER_0_424
*1214 FILLER_0_427
*1215 FILLER_0_43
*1216 FILLER_0_430
*1217 FILLER_0_433
*1218 FILLER_0_436
*1219 FILLER_0_439
*1220 FILLER_0_442
*1221 FILLER_0_445
*1222 FILLER_0_449
*1223 FILLER_0_452
*1224 FILLER_0_455
*1225 FILLER_0_46
*1226 FILLER_0_463
*1227 FILLER_0_466
*1228 FILLER_0_469
*1229 FILLER_0_472
*1230 FILLER_0_475
*1231 FILLER_0_477
*1232 FILLER_0_480
*1233 FILLER_0_483
*1234 FILLER_0_486
*1235 FILLER_0_489
*1236 FILLER_0_49
*1237 FILLER_0_492
*1238 FILLER_0_495
*1239 FILLER_0_498
*1240 FILLER_0_501
*1241 FILLER_0_505
*1242 FILLER_0_508
*1243 FILLER_0_511
*1244 FILLER_0_514
*1245 FILLER_0_517
*1246 FILLER_0_52
*1247 FILLER_0_520
*1248 FILLER_0_523
*1249 FILLER_0_526
*1250 FILLER_0_529
*1251 FILLER_0_55
*1252 FILLER_0_557
*1253 FILLER_0_569
*1254 FILLER_0_57
*1255 FILLER_0_577
*1256 FILLER_0_580
*1257 FILLER_0_583
*1258 FILLER_0_586
*1259 FILLER_0_589
*1260 FILLER_0_592
*1261 FILLER_0_595
*1262 FILLER_0_598
*1263 FILLER_0_6
*1264 FILLER_0_60
*1265 FILLER_0_601
*1266 FILLER_0_604
*1267 FILLER_0_607
*1268 FILLER_0_610
*1269 FILLER_0_613
*1270 FILLER_0_625
*1271 FILLER_0_645
*1272 FILLER_0_69
*1273 FILLER_0_72
*1274 FILLER_0_75
*1275 FILLER_0_85
*1276 FILLER_0_88
*1277 FILLER_0_9
*1278 FILLER_0_91
*1279 FILLER_0_94
*1280 FILLER_0_97
*1281 FILLER_10_101
*1282 FILLER_10_104
*1283 FILLER_10_107
*1284 FILLER_10_110
*1285 FILLER_10_113
*1286 FILLER_10_116
*1287 FILLER_10_138
*1288 FILLER_10_141
*1289 FILLER_10_144
*1290 FILLER_10_147
*1291 FILLER_10_150
*1292 FILLER_10_170
*1293 FILLER_10_173
*1294 FILLER_10_197
*1295 FILLER_10_219
*1296 FILLER_10_29
*1297 FILLER_10_3
*1298 FILLER_10_309
*1299 FILLER_10_332
*1300 FILLER_10_335
*1301 FILLER_10_338
*1302 FILLER_10_341
*1303 FILLER_10_344
*1304 FILLER_10_359
*1305 FILLER_10_362
*1306 FILLER_10_387
*1307 FILLER_10_390
*1308 FILLER_10_411
*1309 FILLER_10_429
*1310 FILLER_10_432
*1311 FILLER_10_435
*1312 FILLER_10_438
*1313 FILLER_10_462
*1314 FILLER_10_469
*1315 FILLER_10_477
*1316 FILLER_10_480
*1317 FILLER_10_483
*1318 FILLER_10_486
*1319 FILLER_10_489
*1320 FILLER_10_492
*1321 FILLER_10_506
*1322 FILLER_10_509
*1323 FILLER_10_525
*1324 FILLER_10_528
*1325 FILLER_10_531
*1326 FILLER_10_533
*1327 FILLER_10_536
*1328 FILLER_10_539
*1329 FILLER_10_542
*1330 FILLER_10_545
*1331 FILLER_10_584
*1332 FILLER_10_587
*1333 FILLER_10_589
*1334 FILLER_10_599
*1335 FILLER_10_6
*1336 FILLER_10_643
*1337 FILLER_10_645
*1338 FILLER_10_648
*1339 FILLER_10_667
*1340 FILLER_10_85
*1341 FILLER_10_88
*1342 FILLER_10_98
*1343 FILLER_11_103
*1344 FILLER_11_106
*1345 FILLER_11_109
*1346 FILLER_11_113
*1347 FILLER_11_146
*1348 FILLER_11_149
*1349 FILLER_11_152
*1350 FILLER_11_155
*1351 FILLER_11_158
*1352 FILLER_11_161
*1353 FILLER_11_164
*1354 FILLER_11_167
*1355 FILLER_11_169
*1356 FILLER_11_172
*1357 FILLER_11_196
*1358 FILLER_11_217
*1359 FILLER_11_220
*1360 FILLER_11_223
*1361 FILLER_11_225
*1362 FILLER_11_256
*1363 FILLER_11_281
*1364 FILLER_11_284
*1365 FILLER_11_287
*1366 FILLER_11_294
*1367 FILLER_11_297
*1368 FILLER_11_329
*1369 FILLER_11_332
*1370 FILLER_11_335
*1371 FILLER_11_345
*1372 FILLER_11_368
*1373 FILLER_11_380
*1374 FILLER_11_393
*1375 FILLER_11_402
*1376 FILLER_11_405
*1377 FILLER_11_408
*1378 FILLER_11_41
*1379 FILLER_11_411
*1380 FILLER_11_432
*1381 FILLER_11_435
*1382 FILLER_11_44
*1383 FILLER_11_447
*1384 FILLER_11_449
*1385 FILLER_11_452
*1386 FILLER_11_455
*1387 FILLER_11_458
*1388 FILLER_11_461
*1389 FILLER_11_464
*1390 FILLER_11_467
*1391 FILLER_11_474
*1392 FILLER_11_477
*1393 FILLER_11_480
*1394 FILLER_11_483
*1395 FILLER_11_486
*1396 FILLER_11_489
*1397 FILLER_11_492
*1398 FILLER_11_495
*1399 FILLER_11_498
*1400 FILLER_11_501
*1401 FILLER_11_505
*1402 FILLER_11_508
*1403 FILLER_11_516
*1404 FILLER_11_519
*1405 FILLER_11_522
*1406 FILLER_11_525
*1407 FILLER_11_536
*1408 FILLER_11_54
*1409 FILLER_11_547
*1410 FILLER_11_550
*1411 FILLER_11_553
*1412 FILLER_11_561
*1413 FILLER_11_57
*1414 FILLER_11_581
*1415 FILLER_11_584
*1416 FILLER_11_587
*1417 FILLER_11_609
*1418 FILLER_11_612
*1419 FILLER_11_615
*1420 FILLER_11_617
*1421 FILLER_11_645
*1422 FILLER_11_667
*1423 FILLER_11_78
*1424 FILLER_11_81
*1425 FILLER_12_110
*1426 FILLER_12_141
*1427 FILLER_12_144
*1428 FILLER_12_147
*1429 FILLER_12_150
*1430 FILLER_12_153
*1431 FILLER_12_171
*1432 FILLER_12_183
*1433 FILLER_12_186
*1434 FILLER_12_197
*1435 FILLER_12_200
*1436 FILLER_12_203
*1437 FILLER_12_206
*1438 FILLER_12_209
*1439 FILLER_12_212
*1440 FILLER_12_215
*1441 FILLER_12_218
*1442 FILLER_12_22
*1443 FILLER_12_221
*1444 FILLER_12_224
*1445 FILLER_12_227
*1446 FILLER_12_230
*1447 FILLER_12_233
*1448 FILLER_12_245
*1449 FILLER_12_248
*1450 FILLER_12_25
*1451 FILLER_12_251
*1452 FILLER_12_253
*1453 FILLER_12_256
*1454 FILLER_12_261
*1455 FILLER_12_264
*1456 FILLER_12_284
*1457 FILLER_12_287
*1458 FILLER_12_290
*1459 FILLER_12_293
*1460 FILLER_12_296
*1461 FILLER_12_299
*1462 FILLER_12_3
*1463 FILLER_12_309
*1464 FILLER_12_312
*1465 FILLER_12_342
*1466 FILLER_12_345
*1467 FILLER_12_362
*1468 FILLER_12_365
*1469 FILLER_12_38
*1470 FILLER_12_380
*1471 FILLER_12_383
*1472 FILLER_12_386
*1473 FILLER_12_396
*1474 FILLER_12_399
*1475 FILLER_12_402
*1476 FILLER_12_405
*1477 FILLER_12_408
*1478 FILLER_12_41
*1479 FILLER_12_411
*1480 FILLER_12_414
*1481 FILLER_12_417
*1482 FILLER_12_433
*1483 FILLER_12_436
*1484 FILLER_12_451
*1485 FILLER_12_454
*1486 FILLER_12_463
*1487 FILLER_12_466
*1488 FILLER_12_469
*1489 FILLER_12_472
*1490 FILLER_12_475
*1491 FILLER_12_477
*1492 FILLER_12_480
*1493 FILLER_12_483
*1494 FILLER_12_486
*1495 FILLER_12_489
*1496 FILLER_12_492
*1497 FILLER_12_495
*1498 FILLER_12_498
*1499 FILLER_12_501
*1500 FILLER_12_504
*1501 FILLER_12_507
*1502 FILLER_12_510
*1503 FILLER_12_513
*1504 FILLER_12_516
*1505 FILLER_12_519
*1506 FILLER_12_522
*1507 FILLER_12_525
*1508 FILLER_12_528
*1509 FILLER_12_531
*1510 FILLER_12_533
*1511 FILLER_12_536
*1512 FILLER_12_539
*1513 FILLER_12_542
*1514 FILLER_12_545
*1515 FILLER_12_548
*1516 FILLER_12_551
*1517 FILLER_12_585
*1518 FILLER_12_589
*1519 FILLER_12_592
*1520 FILLER_12_595
*1521 FILLER_12_598
*1522 FILLER_12_601
*1523 FILLER_12_604
*1524 FILLER_12_607
*1525 FILLER_12_616
*1526 FILLER_12_626
*1527 FILLER_12_629
*1528 FILLER_12_638
*1529 FILLER_12_641
*1530 FILLER_12_645
*1531 FILLER_12_648
*1532 FILLER_12_651
*1533 FILLER_12_77
*1534 FILLER_12_80
*1535 FILLER_12_83
*1536 FILLER_13_109
*1537 FILLER_13_113
*1538 FILLER_13_116
*1539 FILLER_13_119
*1540 FILLER_13_12
*1541 FILLER_13_130
*1542 FILLER_13_133
*1543 FILLER_13_136
*1544 FILLER_13_139
*1545 FILLER_13_15
*1546 FILLER_13_151
*1547 FILLER_13_163
*1548 FILLER_13_166
*1549 FILLER_13_169
*1550 FILLER_13_189
*1551 FILLER_13_192
*1552 FILLER_13_195
*1553 FILLER_13_198
*1554 FILLER_13_201
*1555 FILLER_13_225
*1556 FILLER_13_228
*1557 FILLER_13_231
*1558 FILLER_13_234
*1559 FILLER_13_244
*1560 FILLER_13_254
*1561 FILLER_13_257
*1562 FILLER_13_260
*1563 FILLER_13_263
*1564 FILLER_13_266
*1565 FILLER_13_269
*1566 FILLER_13_281
*1567 FILLER_13_284
*1568 FILLER_13_287
*1569 FILLER_13_290
*1570 FILLER_13_293
*1571 FILLER_13_296
*1572 FILLER_13_3
*1573 FILLER_13_306
*1574 FILLER_13_317
*1575 FILLER_13_320
*1576 FILLER_13_331
*1577 FILLER_13_334
*1578 FILLER_13_337
*1579 FILLER_13_34
*1580 FILLER_13_340
*1581 FILLER_13_343
*1582 FILLER_13_346
*1583 FILLER_13_349
*1584 FILLER_13_352
*1585 FILLER_13_355
*1586 FILLER_13_358
*1587 FILLER_13_361
*1588 FILLER_13_375
*1589 FILLER_13_378
*1590 FILLER_13_381
*1591 FILLER_13_384
*1592 FILLER_13_387
*1593 FILLER_13_390
*1594 FILLER_13_393
*1595 FILLER_13_396
*1596 FILLER_13_399
*1597 FILLER_13_402
*1598 FILLER_13_405
*1599 FILLER_13_408
*1600 FILLER_13_411
*1601 FILLER_13_414
*1602 FILLER_13_417
*1603 FILLER_13_420
*1604 FILLER_13_432
*1605 FILLER_13_446
*1606 FILLER_13_449
*1607 FILLER_13_45
*1608 FILLER_13_452
*1609 FILLER_13_455
*1610 FILLER_13_469
*1611 FILLER_13_48
*1612 FILLER_13_488
*1613 FILLER_13_491
*1614 FILLER_13_505
*1615 FILLER_13_518
*1616 FILLER_13_521
*1617 FILLER_13_529
*1618 FILLER_13_532
*1619 FILLER_13_535
*1620 FILLER_13_538
*1621 FILLER_13_541
*1622 FILLER_13_544
*1623 FILLER_13_547
*1624 FILLER_13_55
*1625 FILLER_13_57
*1626 FILLER_13_574
*1627 FILLER_13_577
*1628 FILLER_13_580
*1629 FILLER_13_583
*1630 FILLER_13_586
*1631 FILLER_13_589
*1632 FILLER_13_592
*1633 FILLER_13_595
*1634 FILLER_13_598
*1635 FILLER_13_6
*1636 FILLER_13_60
*1637 FILLER_13_601
*1638 FILLER_13_604
*1639 FILLER_13_607
*1640 FILLER_13_625
*1641 FILLER_13_628
*1642 FILLER_13_63
*1643 FILLER_13_631
*1644 FILLER_13_665
*1645 FILLER_13_82
*1646 FILLER_13_9
*1647 FILLER_14_12
*1648 FILLER_14_122
*1649 FILLER_14_125
*1650 FILLER_14_128
*1651 FILLER_14_131
*1652 FILLER_14_134
*1653 FILLER_14_137
*1654 FILLER_14_141
*1655 FILLER_14_144
*1656 FILLER_14_147
*1657 FILLER_14_15
*1658 FILLER_14_18
*1659 FILLER_14_186
*1660 FILLER_14_197
*1661 FILLER_14_200
*1662 FILLER_14_203
*1663 FILLER_14_206
*1664 FILLER_14_209
*1665 FILLER_14_212
*1666 FILLER_14_215
*1667 FILLER_14_218
*1668 FILLER_14_221
*1669 FILLER_14_224
*1670 FILLER_14_248
*1671 FILLER_14_251
*1672 FILLER_14_253
*1673 FILLER_14_256
*1674 FILLER_14_259
*1675 FILLER_14_262
*1676 FILLER_14_272
*1677 FILLER_14_275
*1678 FILLER_14_278
*1679 FILLER_14_281
*1680 FILLER_14_284
*1681 FILLER_14_287
*1682 FILLER_14_29
*1683 FILLER_14_293
*1684 FILLER_14_296
*1685 FILLER_14_3
*1686 FILLER_14_32
*1687 FILLER_14_323
*1688 FILLER_14_326
*1689 FILLER_14_35
*1690 FILLER_14_350
*1691 FILLER_14_353
*1692 FILLER_14_356
*1693 FILLER_14_359
*1694 FILLER_14_362
*1695 FILLER_14_365
*1696 FILLER_14_368
*1697 FILLER_14_371
*1698 FILLER_14_374
*1699 FILLER_14_377
*1700 FILLER_14_380
*1701 FILLER_14_383
*1702 FILLER_14_386
*1703 FILLER_14_389
*1704 FILLER_14_392
*1705 FILLER_14_395
*1706 FILLER_14_398
*1707 FILLER_14_401
*1708 FILLER_14_404
*1709 FILLER_14_407
*1710 FILLER_14_410
*1711 FILLER_14_413
*1712 FILLER_14_416
*1713 FILLER_14_419
*1714 FILLER_14_421
*1715 FILLER_14_424
*1716 FILLER_14_427
*1717 FILLER_14_430
*1718 FILLER_14_433
*1719 FILLER_14_436
*1720 FILLER_14_45
*1721 FILLER_14_459
*1722 FILLER_14_467
*1723 FILLER_14_475
*1724 FILLER_14_477
*1725 FILLER_14_48
*1726 FILLER_14_500
*1727 FILLER_14_51
*1728 FILLER_14_54
*1729 FILLER_14_541
*1730 FILLER_14_544
*1731 FILLER_14_547
*1732 FILLER_14_57
*1733 FILLER_14_597
*1734 FILLER_14_6
*1735 FILLER_14_60
*1736 FILLER_14_600
*1737 FILLER_14_603
*1738 FILLER_14_614
*1739 FILLER_14_625
*1740 FILLER_14_628
*1741 FILLER_14_63
*1742 FILLER_14_640
*1743 FILLER_14_643
*1744 FILLER_14_645
*1745 FILLER_14_66
*1746 FILLER_14_667
*1747 FILLER_14_69
*1748 FILLER_14_72
*1749 FILLER_14_75
*1750 FILLER_14_78
*1751 FILLER_14_81
*1752 FILLER_14_85
*1753 FILLER_14_9
*1754 FILLER_15_101
*1755 FILLER_15_12
*1756 FILLER_15_121
*1757 FILLER_15_124
*1758 FILLER_15_15
*1759 FILLER_15_169
*1760 FILLER_15_172
*1761 FILLER_15_185
*1762 FILLER_15_188
*1763 FILLER_15_210
*1764 FILLER_15_213
*1765 FILLER_15_216
*1766 FILLER_15_219
*1767 FILLER_15_222
*1768 FILLER_15_225
*1769 FILLER_15_228
*1770 FILLER_15_231
*1771 FILLER_15_234
*1772 FILLER_15_258
*1773 FILLER_15_281
*1774 FILLER_15_284
*1775 FILLER_15_3
*1776 FILLER_15_315
*1777 FILLER_15_318
*1778 FILLER_15_350
*1779 FILLER_15_353
*1780 FILLER_15_356
*1781 FILLER_15_359
*1782 FILLER_15_362
*1783 FILLER_15_365
*1784 FILLER_15_375
*1785 FILLER_15_378
*1786 FILLER_15_389
*1787 FILLER_15_393
*1788 FILLER_15_396
*1789 FILLER_15_399
*1790 FILLER_15_402
*1791 FILLER_15_405
*1792 FILLER_15_429
*1793 FILLER_15_432
*1794 FILLER_15_435
*1795 FILLER_15_438
*1796 FILLER_15_441
*1797 FILLER_15_444
*1798 FILLER_15_447
*1799 FILLER_15_454
*1800 FILLER_15_457
*1801 FILLER_15_487
*1802 FILLER_15_502
*1803 FILLER_15_505
*1804 FILLER_15_518
*1805 FILLER_15_521
*1806 FILLER_15_543
*1807 FILLER_15_546
*1808 FILLER_15_561
*1809 FILLER_15_564
*1810 FILLER_15_594
*1811 FILLER_15_6
*1812 FILLER_15_65
*1813 FILLER_15_68
*1814 FILLER_15_71
*1815 FILLER_15_74
*1816 FILLER_15_9
*1817 FILLER_15_98
*1818 FILLER_16_111
*1819 FILLER_16_114
*1820 FILLER_16_117
*1821 FILLER_16_120
*1822 FILLER_16_123
*1823 FILLER_16_126
*1824 FILLER_16_129
*1825 FILLER_16_132
*1826 FILLER_16_135
*1827 FILLER_16_138
*1828 FILLER_16_141
*1829 FILLER_16_174
*1830 FILLER_16_197
*1831 FILLER_16_218
*1832 FILLER_16_221
*1833 FILLER_16_224
*1834 FILLER_16_248
*1835 FILLER_16_251
*1836 FILLER_16_253
*1837 FILLER_16_256
*1838 FILLER_16_29
*1839 FILLER_16_3
*1840 FILLER_16_304
*1841 FILLER_16_307
*1842 FILLER_16_309
*1843 FILLER_16_32
*1844 FILLER_16_35
*1845 FILLER_16_354
*1846 FILLER_16_357
*1847 FILLER_16_360
*1848 FILLER_16_363
*1849 FILLER_16_365
*1850 FILLER_16_390
*1851 FILLER_16_393
*1852 FILLER_16_396
*1853 FILLER_16_399
*1854 FILLER_16_402
*1855 FILLER_16_416
*1856 FILLER_16_419
*1857 FILLER_16_438
*1858 FILLER_16_441
*1859 FILLER_16_444
*1860 FILLER_16_447
*1861 FILLER_16_450
*1862 FILLER_16_453
*1863 FILLER_16_456
*1864 FILLER_16_459
*1865 FILLER_16_462
*1866 FILLER_16_473
*1867 FILLER_16_492
*1868 FILLER_16_495
*1869 FILLER_16_498
*1870 FILLER_16_501
*1871 FILLER_16_504
*1872 FILLER_16_507
*1873 FILLER_16_510
*1874 FILLER_16_533
*1875 FILLER_16_536
*1876 FILLER_16_539
*1877 FILLER_16_562
*1878 FILLER_16_565
*1879 FILLER_16_574
*1880 FILLER_16_583
*1881 FILLER_16_586
*1882 FILLER_16_6
*1883 FILLER_16_640
*1884 FILLER_16_643
*1885 FILLER_16_645
*1886 FILLER_16_667
*1887 FILLER_16_73
*1888 FILLER_16_85
*1889 FILLER_17_103
*1890 FILLER_17_106
*1891 FILLER_17_109
*1892 FILLER_17_113
*1893 FILLER_17_116
*1894 FILLER_17_119
*1895 FILLER_17_122
*1896 FILLER_17_140
*1897 FILLER_17_177
*1898 FILLER_17_180
*1899 FILLER_17_225
*1900 FILLER_17_228
*1901 FILLER_17_231
*1902 FILLER_17_251
*1903 FILLER_17_260
*1904 FILLER_17_263
*1905 FILLER_17_281
*1906 FILLER_17_3
*1907 FILLER_17_307
*1908 FILLER_17_310
*1909 FILLER_17_354
*1910 FILLER_17_357
*1911 FILLER_17_360
*1912 FILLER_17_363
*1913 FILLER_17_366
*1914 FILLER_17_377
*1915 FILLER_17_391
*1916 FILLER_17_40
*1917 FILLER_17_43
*1918 FILLER_17_439
*1919 FILLER_17_442
*1920 FILLER_17_445
*1921 FILLER_17_449
*1922 FILLER_17_452
*1923 FILLER_17_455
*1924 FILLER_17_458
*1925 FILLER_17_46
*1926 FILLER_17_461
*1927 FILLER_17_464
*1928 FILLER_17_467
*1929 FILLER_17_470
*1930 FILLER_17_473
*1931 FILLER_17_488
*1932 FILLER_17_491
*1933 FILLER_17_494
*1934 FILLER_17_497
*1935 FILLER_17_500
*1936 FILLER_17_503
*1937 FILLER_17_505
*1938 FILLER_17_508
*1939 FILLER_17_511
*1940 FILLER_17_514
*1941 FILLER_17_517
*1942 FILLER_17_520
*1943 FILLER_17_523
*1944 FILLER_17_526
*1945 FILLER_17_529
*1946 FILLER_17_532
*1947 FILLER_17_535
*1948 FILLER_17_558
*1949 FILLER_17_561
*1950 FILLER_17_57
*1951 FILLER_17_573
*1952 FILLER_17_583
*1953 FILLER_17_6
*1954 FILLER_17_60
*1955 FILLER_17_614
*1956 FILLER_17_617
*1957 FILLER_17_667
*1958 FILLER_17_72
*1959 FILLER_17_9
*1960 FILLER_18_101
*1961 FILLER_18_104
*1962 FILLER_18_107
*1963 FILLER_18_110
*1964 FILLER_18_113
*1965 FILLER_18_136
*1966 FILLER_18_139
*1967 FILLER_18_141
*1968 FILLER_18_144
*1969 FILLER_18_147
*1970 FILLER_18_150
*1971 FILLER_18_153
*1972 FILLER_18_156
*1973 FILLER_18_159
*1974 FILLER_18_174
*1975 FILLER_18_177
*1976 FILLER_18_180
*1977 FILLER_18_183
*1978 FILLER_18_186
*1979 FILLER_18_206
*1980 FILLER_18_209
*1981 FILLER_18_227
*1982 FILLER_18_230
*1983 FILLER_18_233
*1984 FILLER_18_244
*1985 FILLER_18_247
*1986 FILLER_18_250
*1987 FILLER_18_253
*1988 FILLER_18_256
*1989 FILLER_18_259
*1990 FILLER_18_262
*1991 FILLER_18_265
*1992 FILLER_18_268
*1993 FILLER_18_286
*1994 FILLER_18_29
*1995 FILLER_18_3
*1996 FILLER_18_317
*1997 FILLER_18_320
*1998 FILLER_18_350
*1999 FILLER_18_353
*2000 FILLER_18_356
*2001 FILLER_18_359
*2002 FILLER_18_362
*2003 FILLER_18_386
*2004 FILLER_18_389
*2005 FILLER_18_429
*2006 FILLER_18_432
*2007 FILLER_18_435
*2008 FILLER_18_464
*2009 FILLER_18_467
*2010 FILLER_18_470
*2011 FILLER_18_473
*2012 FILLER_18_477
*2013 FILLER_18_480
*2014 FILLER_18_483
*2015 FILLER_18_486
*2016 FILLER_18_489
*2017 FILLER_18_492
*2018 FILLER_18_495
*2019 FILLER_18_498
*2020 FILLER_18_507
*2021 FILLER_18_510
*2022 FILLER_18_513
*2023 FILLER_18_516
*2024 FILLER_18_519
*2025 FILLER_18_522
*2026 FILLER_18_525
*2027 FILLER_18_528
*2028 FILLER_18_531
*2029 FILLER_18_533
*2030 FILLER_18_536
*2031 FILLER_18_539
*2032 FILLER_18_551
*2033 FILLER_18_573
*2034 FILLER_18_579
*2035 FILLER_18_589
*2036 FILLER_18_592
*2037 FILLER_18_6
*2038 FILLER_18_600
*2039 FILLER_18_610
*2040 FILLER_18_613
*2041 FILLER_18_616
*2042 FILLER_18_619
*2043 FILLER_18_622
*2044 FILLER_18_625
*2045 FILLER_18_628
*2046 FILLER_18_631
*2047 FILLER_18_643
*2048 FILLER_18_645
*2049 FILLER_18_648
*2050 FILLER_18_67
*2051 FILLER_18_70
*2052 FILLER_18_73
*2053 FILLER_18_76
*2054 FILLER_18_79
*2055 FILLER_18_82
*2056 FILLER_18_85
*2057 FILLER_19_101
*2058 FILLER_19_104
*2059 FILLER_19_107
*2060 FILLER_19_110
*2061 FILLER_19_142
*2062 FILLER_19_145
*2063 FILLER_19_148
*2064 FILLER_19_151
*2065 FILLER_19_154
*2066 FILLER_19_157
*2067 FILLER_19_160
*2068 FILLER_19_163
*2069 FILLER_19_166
*2070 FILLER_19_169
*2071 FILLER_19_172
*2072 FILLER_19_175
*2073 FILLER_19_178
*2074 FILLER_19_181
*2075 FILLER_19_184
*2076 FILLER_19_187
*2077 FILLER_19_190
*2078 FILLER_19_210
*2079 FILLER_19_213
*2080 FILLER_19_216
*2081 FILLER_19_219
*2082 FILLER_19_222
*2083 FILLER_19_225
*2084 FILLER_19_228
*2085 FILLER_19_231
*2086 FILLER_19_234
*2087 FILLER_19_237
*2088 FILLER_19_240
*2089 FILLER_19_250
*2090 FILLER_19_253
*2091 FILLER_19_264
*2092 FILLER_19_267
*2093 FILLER_19_270
*2094 FILLER_19_273
*2095 FILLER_19_276
*2096 FILLER_19_279
*2097 FILLER_19_281
*2098 FILLER_19_284
*2099 FILLER_19_287
*2100 FILLER_19_290
*2101 FILLER_19_3
*2102 FILLER_19_308
*2103 FILLER_19_321
*2104 FILLER_19_331
*2105 FILLER_19_334
*2106 FILLER_19_337
*2107 FILLER_19_351
*2108 FILLER_19_354
*2109 FILLER_19_357
*2110 FILLER_19_360
*2111 FILLER_19_384
*2112 FILLER_19_393
*2113 FILLER_19_40
*2114 FILLER_19_412
*2115 FILLER_19_43
*2116 FILLER_19_430
*2117 FILLER_19_433
*2118 FILLER_19_436
*2119 FILLER_19_439
*2120 FILLER_19_46
*2121 FILLER_19_470
*2122 FILLER_19_473
*2123 FILLER_19_476
*2124 FILLER_19_479
*2125 FILLER_19_482
*2126 FILLER_19_485
*2127 FILLER_19_488
*2128 FILLER_19_491
*2129 FILLER_19_494
*2130 FILLER_19_505
*2131 FILLER_19_508
*2132 FILLER_19_511
*2133 FILLER_19_514
*2134 FILLER_19_517
*2135 FILLER_19_520
*2136 FILLER_19_523
*2137 FILLER_19_526
*2138 FILLER_19_529
*2139 FILLER_19_532
*2140 FILLER_19_535
*2141 FILLER_19_538
*2142 FILLER_19_541
*2143 FILLER_19_544
*2144 FILLER_19_547
*2145 FILLER_19_550
*2146 FILLER_19_553
*2147 FILLER_19_556
*2148 FILLER_19_559
*2149 FILLER_19_561
*2150 FILLER_19_574
*2151 FILLER_19_577
*2152 FILLER_19_580
*2153 FILLER_19_583
*2154 FILLER_19_586
*2155 FILLER_19_589
*2156 FILLER_19_592
*2157 FILLER_19_595
*2158 FILLER_19_598
*2159 FILLER_19_6
*2160 FILLER_19_601
*2161 FILLER_19_604
*2162 FILLER_19_607
*2163 FILLER_19_610
*2164 FILLER_19_613
*2165 FILLER_19_617
*2166 FILLER_19_620
*2167 FILLER_19_623
*2168 FILLER_19_626
*2169 FILLER_19_629
*2170 FILLER_19_632
*2171 FILLER_19_635
*2172 FILLER_19_68
*2173 FILLER_19_71
*2174 FILLER_19_74
*2175 FILLER_19_77
*2176 FILLER_19_80
*2177 FILLER_19_83
*2178 FILLER_19_86
*2179 FILLER_19_89
*2180 FILLER_19_92
*2181 FILLER_19_95
*2182 FILLER_19_98
*2183 FILLER_1_105
*2184 FILLER_1_108
*2185 FILLER_1_111
*2186 FILLER_1_113
*2187 FILLER_1_12
*2188 FILLER_1_143
*2189 FILLER_1_146
*2190 FILLER_1_149
*2191 FILLER_1_15
*2192 FILLER_1_152
*2193 FILLER_1_155
*2194 FILLER_1_166
*2195 FILLER_1_169
*2196 FILLER_1_18
*2197 FILLER_1_180
*2198 FILLER_1_183
*2199 FILLER_1_186
*2200 FILLER_1_189
*2201 FILLER_1_192
*2202 FILLER_1_210
*2203 FILLER_1_219
*2204 FILLER_1_222
*2205 FILLER_1_225
*2206 FILLER_1_228
*2207 FILLER_1_3
*2208 FILLER_1_302
*2209 FILLER_1_305
*2210 FILLER_1_337
*2211 FILLER_1_356
*2212 FILLER_1_386
*2213 FILLER_1_389
*2214 FILLER_1_393
*2215 FILLER_1_396
*2216 FILLER_1_399
*2217 FILLER_1_402
*2218 FILLER_1_405
*2219 FILLER_1_408
*2220 FILLER_1_424
*2221 FILLER_1_427
*2222 FILLER_1_430
*2223 FILLER_1_433
*2224 FILLER_1_436
*2225 FILLER_1_439
*2226 FILLER_1_446
*2227 FILLER_1_457
*2228 FILLER_1_471
*2229 FILLER_1_474
*2230 FILLER_1_477
*2231 FILLER_1_480
*2232 FILLER_1_483
*2233 FILLER_1_492
*2234 FILLER_1_495
*2235 FILLER_1_498
*2236 FILLER_1_501
*2237 FILLER_1_514
*2238 FILLER_1_517
*2239 FILLER_1_520
*2240 FILLER_1_523
*2241 FILLER_1_538
*2242 FILLER_1_54
*2243 FILLER_1_541
*2244 FILLER_1_553
*2245 FILLER_1_556
*2246 FILLER_1_559
*2247 FILLER_1_57
*2248 FILLER_1_583
*2249 FILLER_1_586
*2250 FILLER_1_589
*2251 FILLER_1_592
*2252 FILLER_1_595
*2253 FILLER_1_598
*2254 FILLER_1_6
*2255 FILLER_1_60
*2256 FILLER_1_601
*2257 FILLER_1_604
*2258 FILLER_1_63
*2259 FILLER_1_66
*2260 FILLER_1_9
*2261 FILLER_20_100
*2262 FILLER_20_103
*2263 FILLER_20_134
*2264 FILLER_20_137
*2265 FILLER_20_141
*2266 FILLER_20_144
*2267 FILLER_20_147
*2268 FILLER_20_150
*2269 FILLER_20_153
*2270 FILLER_20_156
*2271 FILLER_20_174
*2272 FILLER_20_177
*2273 FILLER_20_180
*2274 FILLER_20_183
*2275 FILLER_20_186
*2276 FILLER_20_189
*2277 FILLER_20_192
*2278 FILLER_20_195
*2279 FILLER_20_197
*2280 FILLER_20_200
*2281 FILLER_20_203
*2282 FILLER_20_214
*2283 FILLER_20_217
*2284 FILLER_20_220
*2285 FILLER_20_223
*2286 FILLER_20_226
*2287 FILLER_20_229
*2288 FILLER_20_253
*2289 FILLER_20_266
*2290 FILLER_20_269
*2291 FILLER_20_27
*2292 FILLER_20_272
*2293 FILLER_20_275
*2294 FILLER_20_278
*2295 FILLER_20_281
*2296 FILLER_20_284
*2297 FILLER_20_287
*2298 FILLER_20_290
*2299 FILLER_20_293
*2300 FILLER_20_296
*2301 FILLER_20_3
*2302 FILLER_20_319
*2303 FILLER_20_322
*2304 FILLER_20_325
*2305 FILLER_20_334
*2306 FILLER_20_337
*2307 FILLER_20_344
*2308 FILLER_20_347
*2309 FILLER_20_350
*2310 FILLER_20_353
*2311 FILLER_20_365
*2312 FILLER_20_37
*2313 FILLER_20_377
*2314 FILLER_20_388
*2315 FILLER_20_391
*2316 FILLER_20_394
*2317 FILLER_20_40
*2318 FILLER_20_404
*2319 FILLER_20_421
*2320 FILLER_20_424
*2321 FILLER_20_427
*2322 FILLER_20_43
*2323 FILLER_20_430
*2324 FILLER_20_433
*2325 FILLER_20_436
*2326 FILLER_20_439
*2327 FILLER_20_442
*2328 FILLER_20_445
*2329 FILLER_20_448
*2330 FILLER_20_471
*2331 FILLER_20_474
*2332 FILLER_20_477
*2333 FILLER_20_480
*2334 FILLER_20_496
*2335 FILLER_20_518
*2336 FILLER_20_521
*2337 FILLER_20_524
*2338 FILLER_20_527
*2339 FILLER_20_530
*2340 FILLER_20_533
*2341 FILLER_20_536
*2342 FILLER_20_539
*2343 FILLER_20_545
*2344 FILLER_20_548
*2345 FILLER_20_551
*2346 FILLER_20_554
*2347 FILLER_20_557
*2348 FILLER_20_560
*2349 FILLER_20_577
*2350 FILLER_20_580
*2351 FILLER_20_583
*2352 FILLER_20_586
*2353 FILLER_20_589
*2354 FILLER_20_592
*2355 FILLER_20_595
*2356 FILLER_20_598
*2357 FILLER_20_6
*2358 FILLER_20_601
*2359 FILLER_20_632
*2360 FILLER_20_641
*2361 FILLER_20_645
*2362 FILLER_20_648
*2363 FILLER_20_657
*2364 FILLER_20_67
*2365 FILLER_20_70
*2366 FILLER_20_73
*2367 FILLER_20_9
*2368 FILLER_20_94
*2369 FILLER_20_97
*2370 FILLER_21_102
*2371 FILLER_21_105
*2372 FILLER_21_108
*2373 FILLER_21_111
*2374 FILLER_21_12
*2375 FILLER_21_15
*2376 FILLER_21_178
*2377 FILLER_21_181
*2378 FILLER_21_184
*2379 FILLER_21_187
*2380 FILLER_21_219
*2381 FILLER_21_222
*2382 FILLER_21_225
*2383 FILLER_21_228
*2384 FILLER_21_231
*2385 FILLER_21_234
*2386 FILLER_21_237
*2387 FILLER_21_240
*2388 FILLER_21_274
*2389 FILLER_21_277
*2390 FILLER_21_281
*2391 FILLER_21_284
*2392 FILLER_21_287
*2393 FILLER_21_290
*2394 FILLER_21_293
*2395 FILLER_21_3
*2396 FILLER_21_316
*2397 FILLER_21_319
*2398 FILLER_21_322
*2399 FILLER_21_325
*2400 FILLER_21_328
*2401 FILLER_21_331
*2402 FILLER_21_334
*2403 FILLER_21_337
*2404 FILLER_21_34
*2405 FILLER_21_346
*2406 FILLER_21_358
*2407 FILLER_21_361
*2408 FILLER_21_364
*2409 FILLER_21_367
*2410 FILLER_21_37
*2411 FILLER_21_379
*2412 FILLER_21_382
*2413 FILLER_21_385
*2414 FILLER_21_388
*2415 FILLER_21_391
*2416 FILLER_21_393
*2417 FILLER_21_396
*2418 FILLER_21_399
*2419 FILLER_21_40
*2420 FILLER_21_402
*2421 FILLER_21_412
*2422 FILLER_21_415
*2423 FILLER_21_425
*2424 FILLER_21_428
*2425 FILLER_21_43
*2426 FILLER_21_431
*2427 FILLER_21_434
*2428 FILLER_21_437
*2429 FILLER_21_440
*2430 FILLER_21_46
*2431 FILLER_21_480
*2432 FILLER_21_483
*2433 FILLER_21_486
*2434 FILLER_21_489
*2435 FILLER_21_492
*2436 FILLER_21_505
*2437 FILLER_21_520
*2438 FILLER_21_550
*2439 FILLER_21_553
*2440 FILLER_21_556
*2441 FILLER_21_559
*2442 FILLER_21_57
*2443 FILLER_21_585
*2444 FILLER_21_588
*2445 FILLER_21_591
*2446 FILLER_21_594
*2447 FILLER_21_597
*2448 FILLER_21_6
*2449 FILLER_21_600
*2450 FILLER_21_603
*2451 FILLER_21_613
*2452 FILLER_21_626
*2453 FILLER_21_658
*2454 FILLER_21_67
*2455 FILLER_21_70
*2456 FILLER_21_9
*2457 FILLER_21_93
*2458 FILLER_21_96
*2459 FILLER_21_99
*2460 FILLER_22_101
*2461 FILLER_22_104
*2462 FILLER_22_107
*2463 FILLER_22_110
*2464 FILLER_22_137
*2465 FILLER_22_141
*2466 FILLER_22_144
*2467 FILLER_22_175
*2468 FILLER_22_178
*2469 FILLER_22_181
*2470 FILLER_22_184
*2471 FILLER_22_197
*2472 FILLER_22_220
*2473 FILLER_22_223
*2474 FILLER_22_226
*2475 FILLER_22_239
*2476 FILLER_22_242
*2477 FILLER_22_253
*2478 FILLER_22_281
*2479 FILLER_22_284
*2480 FILLER_22_287
*2481 FILLER_22_290
*2482 FILLER_22_293
*2483 FILLER_22_296
*2484 FILLER_22_299
*2485 FILLER_22_3
*2486 FILLER_22_302
*2487 FILLER_22_305
*2488 FILLER_22_317
*2489 FILLER_22_320
*2490 FILLER_22_323
*2491 FILLER_22_326
*2492 FILLER_22_329
*2493 FILLER_22_332
*2494 FILLER_22_335
*2495 FILLER_22_346
*2496 FILLER_22_349
*2497 FILLER_22_352
*2498 FILLER_22_363
*2499 FILLER_22_365
*2500 FILLER_22_368
*2501 FILLER_22_371
*2502 FILLER_22_38
*2503 FILLER_22_389
*2504 FILLER_22_392
*2505 FILLER_22_395
*2506 FILLER_22_398
*2507 FILLER_22_401
*2508 FILLER_22_41
*2509 FILLER_22_431
*2510 FILLER_22_434
*2511 FILLER_22_437
*2512 FILLER_22_44
*2513 FILLER_22_440
*2514 FILLER_22_443
*2515 FILLER_22_47
*2516 FILLER_22_472
*2517 FILLER_22_475
*2518 FILLER_22_485
*2519 FILLER_22_488
*2520 FILLER_22_491
*2521 FILLER_22_494
*2522 FILLER_22_50
*2523 FILLER_22_517
*2524 FILLER_22_520
*2525 FILLER_22_523
*2526 FILLER_22_533
*2527 FILLER_22_554
*2528 FILLER_22_557
*2529 FILLER_22_584
*2530 FILLER_22_587
*2531 FILLER_22_6
*2532 FILLER_22_63
*2533 FILLER_22_640
*2534 FILLER_22_643
*2535 FILLER_22_645
*2536 FILLER_22_667
*2537 FILLER_22_85
*2538 FILLER_22_88
*2539 FILLER_23_103
*2540 FILLER_23_111
*2541 FILLER_23_113
*2542 FILLER_23_116
*2543 FILLER_23_12
*2544 FILLER_23_146
*2545 FILLER_23_15
*2546 FILLER_23_177
*2547 FILLER_23_180
*2548 FILLER_23_183
*2549 FILLER_23_186
*2550 FILLER_23_225
*2551 FILLER_23_239
*2552 FILLER_23_281
*2553 FILLER_23_284
*2554 FILLER_23_287
*2555 FILLER_23_290
*2556 FILLER_23_293
*2557 FILLER_23_3
*2558 FILLER_23_323
*2559 FILLER_23_326
*2560 FILLER_23_368
*2561 FILLER_23_389
*2562 FILLER_23_393
*2563 FILLER_23_396
*2564 FILLER_23_399
*2565 FILLER_23_402
*2566 FILLER_23_435
*2567 FILLER_23_438
*2568 FILLER_23_441
*2569 FILLER_23_503
*2570 FILLER_23_513
*2571 FILLER_23_516
*2572 FILLER_23_519
*2573 FILLER_23_522
*2574 FILLER_23_525
*2575 FILLER_23_557
*2576 FILLER_23_561
*2577 FILLER_23_564
*2578 FILLER_23_567
*2579 FILLER_23_577
*2580 FILLER_23_580
*2581 FILLER_23_595
*2582 FILLER_23_598
*2583 FILLER_23_6
*2584 FILLER_23_601
*2585 FILLER_23_614
*2586 FILLER_23_625
*2587 FILLER_23_642
*2588 FILLER_23_645
*2589 FILLER_23_66
*2590 FILLER_23_667
*2591 FILLER_23_69
*2592 FILLER_23_72
*2593 FILLER_23_9
*2594 FILLER_24_12
*2595 FILLER_24_133
*2596 FILLER_24_136
*2597 FILLER_24_139
*2598 FILLER_24_15
*2599 FILLER_24_158
*2600 FILLER_24_18
*2601 FILLER_24_180
*2602 FILLER_24_183
*2603 FILLER_24_186
*2604 FILLER_24_197
*2605 FILLER_24_200
*2606 FILLER_24_212
*2607 FILLER_24_221
*2608 FILLER_24_224
*2609 FILLER_24_227
*2610 FILLER_24_241
*2611 FILLER_24_250
*2612 FILLER_24_253
*2613 FILLER_24_29
*2614 FILLER_24_3
*2615 FILLER_24_305
*2616 FILLER_24_309
*2617 FILLER_24_312
*2618 FILLER_24_32
*2619 FILLER_24_394
*2620 FILLER_24_397
*2621 FILLER_24_419
*2622 FILLER_24_421
*2623 FILLER_24_442
*2624 FILLER_24_445
*2625 FILLER_24_448
*2626 FILLER_24_451
*2627 FILLER_24_474
*2628 FILLER_24_485
*2629 FILLER_24_521
*2630 FILLER_24_562
*2631 FILLER_24_585
*2632 FILLER_24_6
*2633 FILLER_24_619
*2634 FILLER_24_622
*2635 FILLER_24_63
*2636 FILLER_24_642
*2637 FILLER_24_645
*2638 FILLER_24_648
*2639 FILLER_24_658
*2640 FILLER_24_66
*2641 FILLER_24_69
*2642 FILLER_24_72
*2643 FILLER_24_85
*2644 FILLER_24_88
*2645 FILLER_24_9
*2646 FILLER_24_91
*2647 FILLER_25_107
*2648 FILLER_25_110
*2649 FILLER_25_113
*2650 FILLER_25_116
*2651 FILLER_25_12
*2652 FILLER_25_15
*2653 FILLER_25_155
*2654 FILLER_25_158
*2655 FILLER_25_169
*2656 FILLER_25_18
*2657 FILLER_25_21
*2658 FILLER_25_221
*2659 FILLER_25_225
*2660 FILLER_25_24
*2661 FILLER_25_247
*2662 FILLER_25_271
*2663 FILLER_25_274
*2664 FILLER_25_277
*2665 FILLER_25_281
*2666 FILLER_25_284
*2667 FILLER_25_3
*2668 FILLER_25_307
*2669 FILLER_25_331
*2670 FILLER_25_337
*2671 FILLER_25_34
*2672 FILLER_25_340
*2673 FILLER_25_389
*2674 FILLER_25_401
*2675 FILLER_25_444
*2676 FILLER_25_447
*2677 FILLER_25_449
*2678 FILLER_25_461
*2679 FILLER_25_521
*2680 FILLER_25_524
*2681 FILLER_25_527
*2682 FILLER_25_549
*2683 FILLER_25_552
*2684 FILLER_25_559
*2685 FILLER_25_561
*2686 FILLER_25_564
*2687 FILLER_25_6
*2688 FILLER_25_615
*2689 FILLER_25_647
*2690 FILLER_25_9
*2691 FILLER_26_100
*2692 FILLER_26_109
*2693 FILLER_26_112
*2694 FILLER_26_115
*2695 FILLER_26_118
*2696 FILLER_26_12
*2697 FILLER_26_121
*2698 FILLER_26_141
*2699 FILLER_26_144
*2700 FILLER_26_15
*2701 FILLER_26_154
*2702 FILLER_26_157
*2703 FILLER_26_160
*2704 FILLER_26_163
*2705 FILLER_26_166
*2706 FILLER_26_175
*2707 FILLER_26_178
*2708 FILLER_26_18
*2709 FILLER_26_181
*2710 FILLER_26_190
*2711 FILLER_26_193
*2712 FILLER_26_197
*2713 FILLER_26_208
*2714 FILLER_26_21
*2715 FILLER_26_217
*2716 FILLER_26_24
*2717 FILLER_26_242
*2718 FILLER_26_245
*2719 FILLER_26_261
*2720 FILLER_26_264
*2721 FILLER_26_267
*2722 FILLER_26_27
*2723 FILLER_26_270
*2724 FILLER_26_273
*2725 FILLER_26_276
*2726 FILLER_26_29
*2727 FILLER_26_296
*2728 FILLER_26_307
*2729 FILLER_26_309
*2730 FILLER_26_321
*2731 FILLER_26_339
*2732 FILLER_26_342
*2733 FILLER_26_360
*2734 FILLER_26_363
*2735 FILLER_26_365
*2736 FILLER_26_368
*2737 FILLER_26_390
*2738 FILLER_26_393
*2739 FILLER_26_396
*2740 FILLER_26_399
*2741 FILLER_26_402
*2742 FILLER_26_413
*2743 FILLER_26_416
*2744 FILLER_26_419
*2745 FILLER_26_430
*2746 FILLER_26_439
*2747 FILLER_26_449
*2748 FILLER_26_452
*2749 FILLER_26_463
*2750 FILLER_26_473
*2751 FILLER_26_485
*2752 FILLER_26_488
*2753 FILLER_26_491
*2754 FILLER_26_515
*2755 FILLER_26_518
*2756 FILLER_26_521
*2757 FILLER_26_524
*2758 FILLER_26_527
*2759 FILLER_26_530
*2760 FILLER_26_533
*2761 FILLER_26_555
*2762 FILLER_26_558
*2763 FILLER_26_561
*2764 FILLER_26_564
*2765 FILLER_26_567
*2766 FILLER_26_570
*2767 FILLER_26_573
*2768 FILLER_26_576
*2769 FILLER_26_579
*2770 FILLER_26_589
*2771 FILLER_26_640
*2772 FILLER_26_643
*2773 FILLER_26_645
*2774 FILLER_26_648
*2775 FILLER_26_651
*2776 FILLER_26_69
*2777 FILLER_26_72
*2778 FILLER_26_75
*2779 FILLER_26_9
*2780 FILLER_26_94
*2781 FILLER_26_97
*2782 FILLER_27_101
*2783 FILLER_27_104
*2784 FILLER_27_107
*2785 FILLER_27_110
*2786 FILLER_27_113
*2787 FILLER_27_116
*2788 FILLER_27_119
*2789 FILLER_27_12
*2790 FILLER_27_122
*2791 FILLER_27_125
*2792 FILLER_27_128
*2793 FILLER_27_131
*2794 FILLER_27_134
*2795 FILLER_27_137
*2796 FILLER_27_149
*2797 FILLER_27_15
*2798 FILLER_27_169
*2799 FILLER_27_172
*2800 FILLER_27_175
*2801 FILLER_27_178
*2802 FILLER_27_18
*2803 FILLER_27_181
*2804 FILLER_27_184
*2805 FILLER_27_187
*2806 FILLER_27_190
*2807 FILLER_27_193
*2808 FILLER_27_197
*2809 FILLER_27_200
*2810 FILLER_27_203
*2811 FILLER_27_206
*2812 FILLER_27_21
*2813 FILLER_27_225
*2814 FILLER_27_228
*2815 FILLER_27_239
*2816 FILLER_27_24
*2817 FILLER_27_242
*2818 FILLER_27_249
*2819 FILLER_27_253
*2820 FILLER_27_256
*2821 FILLER_27_259
*2822 FILLER_27_262
*2823 FILLER_27_265
*2824 FILLER_27_268
*2825 FILLER_27_27
*2826 FILLER_27_271
*2827 FILLER_27_274
*2828 FILLER_27_277
*2829 FILLER_27_29
*2830 FILLER_27_297
*2831 FILLER_27_3
*2832 FILLER_27_300
*2833 FILLER_27_303
*2834 FILLER_27_306
*2835 FILLER_27_309
*2836 FILLER_27_312
*2837 FILLER_27_315
*2838 FILLER_27_318
*2839 FILLER_27_32
*2840 FILLER_27_321
*2841 FILLER_27_324
*2842 FILLER_27_327
*2843 FILLER_27_330
*2844 FILLER_27_333
*2845 FILLER_27_337
*2846 FILLER_27_340
*2847 FILLER_27_343
*2848 FILLER_27_346
*2849 FILLER_27_349
*2850 FILLER_27_35
*2851 FILLER_27_352
*2852 FILLER_27_355
*2853 FILLER_27_358
*2854 FILLER_27_361
*2855 FILLER_27_373
*2856 FILLER_27_38
*2857 FILLER_27_382
*2858 FILLER_27_385
*2859 FILLER_27_388
*2860 FILLER_27_391
*2861 FILLER_27_393
*2862 FILLER_27_396
*2863 FILLER_27_399
*2864 FILLER_27_402
*2865 FILLER_27_405
*2866 FILLER_27_408
*2867 FILLER_27_41
*2868 FILLER_27_411
*2869 FILLER_27_429
*2870 FILLER_27_438
*2871 FILLER_27_44
*2872 FILLER_27_441
*2873 FILLER_27_444
*2874 FILLER_27_447
*2875 FILLER_27_449
*2876 FILLER_27_452
*2877 FILLER_27_472
*2878 FILLER_27_475
*2879 FILLER_27_493
*2880 FILLER_27_496
*2881 FILLER_27_499
*2882 FILLER_27_502
*2883 FILLER_27_505
*2884 FILLER_27_508
*2885 FILLER_27_511
*2886 FILLER_27_514
*2887 FILLER_27_517
*2888 FILLER_27_520
*2889 FILLER_27_523
*2890 FILLER_27_526
*2891 FILLER_27_529
*2892 FILLER_27_533
*2893 FILLER_27_536
*2894 FILLER_27_539
*2895 FILLER_27_54
*2896 FILLER_27_542
*2897 FILLER_27_545
*2898 FILLER_27_548
*2899 FILLER_27_551
*2900 FILLER_27_554
*2901 FILLER_27_557
*2902 FILLER_27_561
*2903 FILLER_27_564
*2904 FILLER_27_567
*2905 FILLER_27_57
*2906 FILLER_27_570
*2907 FILLER_27_573
*2908 FILLER_27_576
*2909 FILLER_27_579
*2910 FILLER_27_582
*2911 FILLER_27_585
*2912 FILLER_27_589
*2913 FILLER_27_592
*2914 FILLER_27_595
*2915 FILLER_27_598
*2916 FILLER_27_6
*2917 FILLER_27_60
*2918 FILLER_27_610
*2919 FILLER_27_613
*2920 FILLER_27_617
*2921 FILLER_27_628
*2922 FILLER_27_63
*2923 FILLER_27_631
*2924 FILLER_27_634
*2925 FILLER_27_637
*2926 FILLER_27_640
*2927 FILLER_27_643
*2928 FILLER_27_645
*2929 FILLER_27_648
*2930 FILLER_27_66
*2931 FILLER_27_69
*2932 FILLER_27_72
*2933 FILLER_27_75
*2934 FILLER_27_78
*2935 FILLER_27_81
*2936 FILLER_27_85
*2937 FILLER_27_9
*2938 FILLER_27_95
*2939 FILLER_27_98
*2940 FILLER_2_108
*2941 FILLER_2_111
*2942 FILLER_2_133
*2943 FILLER_2_136
*2944 FILLER_2_139
*2945 FILLER_2_141
*2946 FILLER_2_144
*2947 FILLER_2_147
*2948 FILLER_2_150
*2949 FILLER_2_180
*2950 FILLER_2_183
*2951 FILLER_2_186
*2952 FILLER_2_218
*2953 FILLER_2_221
*2954 FILLER_2_224
*2955 FILLER_2_227
*2956 FILLER_2_251
*2957 FILLER_2_26
*2958 FILLER_2_262
*2959 FILLER_2_295
*2960 FILLER_2_3
*2961 FILLER_2_306
*2962 FILLER_2_309
*2963 FILLER_2_312
*2964 FILLER_2_342
*2965 FILLER_2_386
*2966 FILLER_2_389
*2967 FILLER_2_392
*2968 FILLER_2_395
*2969 FILLER_2_398
*2970 FILLER_2_401
*2971 FILLER_2_404
*2972 FILLER_2_418
*2973 FILLER_2_428
*2974 FILLER_2_431
*2975 FILLER_2_434
*2976 FILLER_2_437
*2977 FILLER_2_445
*2978 FILLER_2_459
*2979 FILLER_2_473
*2980 FILLER_2_477
*2981 FILLER_2_480
*2982 FILLER_2_517
*2983 FILLER_2_520
*2984 FILLER_2_58
*2985 FILLER_2_589
*2986 FILLER_2_61
*2987 FILLER_2_642
*2988 FILLER_2_645
*2989 FILLER_2_658
*2990 FILLER_2_85
*2991 FILLER_3_101
*2992 FILLER_3_113
*2993 FILLER_3_116
*2994 FILLER_3_178
*2995 FILLER_3_181
*2996 FILLER_3_225
*2997 FILLER_3_228
*2998 FILLER_3_231
*2999 FILLER_3_271
*3000 FILLER_3_299
*3001 FILLER_3_302
*3002 FILLER_3_305
*3003 FILLER_3_346
*3004 FILLER_3_349
*3005 FILLER_3_352
*3006 FILLER_3_388
*3007 FILLER_3_391
*3008 FILLER_3_393
*3009 FILLER_3_396
*3010 FILLER_3_437
*3011 FILLER_3_440
*3012 FILLER_3_486
*3013 FILLER_3_489
*3014 FILLER_3_53
*3015 FILLER_3_57
*3016 FILLER_3_570
*3017 FILLER_3_593
*3018 FILLER_3_6
*3019 FILLER_3_603
*3020 FILLER_3_606
*3021 FILLER_3_617
*3022 FILLER_3_627
*3023 FILLER_3_659
*3024 FILLER_3_9
*3025 FILLER_3_98
*3026 FILLER_4_101
*3027 FILLER_4_104
*3028 FILLER_4_12
*3029 FILLER_4_128
*3030 FILLER_4_141
*3031 FILLER_4_144
*3032 FILLER_4_218
*3033 FILLER_4_22
*3034 FILLER_4_221
*3035 FILLER_4_224
*3036 FILLER_4_227
*3037 FILLER_4_249
*3038 FILLER_4_25
*3039 FILLER_4_253
*3040 FILLER_4_264
*3041 FILLER_4_267
*3042 FILLER_4_270
*3043 FILLER_4_3
*3044 FILLER_4_309
*3045 FILLER_4_333
*3046 FILLER_4_336
*3047 FILLER_4_346
*3048 FILLER_4_349
*3049 FILLER_4_361
*3050 FILLER_4_365
*3051 FILLER_4_368
*3052 FILLER_4_379
*3053 FILLER_4_382
*3054 FILLER_4_385
*3055 FILLER_4_388
*3056 FILLER_4_391
*3057 FILLER_4_394
*3058 FILLER_4_408
*3059 FILLER_4_419
*3060 FILLER_4_427
*3061 FILLER_4_430
*3062 FILLER_4_433
*3063 FILLER_4_436
*3064 FILLER_4_465
*3065 FILLER_4_468
*3066 FILLER_4_477
*3067 FILLER_4_493
*3068 FILLER_4_496
*3069 FILLER_4_499
*3070 FILLER_4_509
*3071 FILLER_4_542
*3072 FILLER_4_545
*3073 FILLER_4_585
*3074 FILLER_4_597
*3075 FILLER_4_6
*3076 FILLER_4_60
*3077 FILLER_4_600
*3078 FILLER_4_603
*3079 FILLER_4_606
*3080 FILLER_4_616
*3081 FILLER_4_619
*3082 FILLER_4_638
*3083 FILLER_4_641
*3084 FILLER_4_645
*3085 FILLER_4_659
*3086 FILLER_4_9
*3087 FILLER_5_102
*3088 FILLER_5_105
*3089 FILLER_5_108
*3090 FILLER_5_111
*3091 FILLER_5_113
*3092 FILLER_5_116
*3093 FILLER_5_12
*3094 FILLER_5_134
*3095 FILLER_5_15
*3096 FILLER_5_177
*3097 FILLER_5_180
*3098 FILLER_5_209
*3099 FILLER_5_219
*3100 FILLER_5_222
*3101 FILLER_5_225
*3102 FILLER_5_259
*3103 FILLER_5_268
*3104 FILLER_5_271
*3105 FILLER_5_281
*3106 FILLER_5_284
*3107 FILLER_5_287
*3108 FILLER_5_297
*3109 FILLER_5_3
*3110 FILLER_5_306
*3111 FILLER_5_309
*3112 FILLER_5_312
*3113 FILLER_5_322
*3114 FILLER_5_333
*3115 FILLER_5_345
*3116 FILLER_5_348
*3117 FILLER_5_362
*3118 FILLER_5_365
*3119 FILLER_5_368
*3120 FILLER_5_371
*3121 FILLER_5_374
*3122 FILLER_5_377
*3123 FILLER_5_380
*3124 FILLER_5_383
*3125 FILLER_5_386
*3126 FILLER_5_389
*3127 FILLER_5_420
*3128 FILLER_5_423
*3129 FILLER_5_438
*3130 FILLER_5_456
*3131 FILLER_5_459
*3132 FILLER_5_462
*3133 FILLER_5_465
*3134 FILLER_5_484
*3135 FILLER_5_492
*3136 FILLER_5_495
*3137 FILLER_5_498
*3138 FILLER_5_501
*3139 FILLER_5_505
*3140 FILLER_5_508
*3141 FILLER_5_53
*3142 FILLER_5_555
*3143 FILLER_5_558
*3144 FILLER_5_590
*3145 FILLER_5_593
*3146 FILLER_5_596
*3147 FILLER_5_6
*3148 FILLER_5_615
*3149 FILLER_5_617
*3150 FILLER_5_645
*3151 FILLER_5_66
*3152 FILLER_5_667
*3153 FILLER_5_9
*3154 FILLER_5_96
*3155 FILLER_5_99
*3156 FILLER_6_100
*3157 FILLER_6_139
*3158 FILLER_6_141
*3159 FILLER_6_144
*3160 FILLER_6_147
*3161 FILLER_6_150
*3162 FILLER_6_153
*3163 FILLER_6_171
*3164 FILLER_6_174
*3165 FILLER_6_177
*3166 FILLER_6_180
*3167 FILLER_6_183
*3168 FILLER_6_186
*3169 FILLER_6_189
*3170 FILLER_6_19
*3171 FILLER_6_192
*3172 FILLER_6_195
*3173 FILLER_6_197
*3174 FILLER_6_200
*3175 FILLER_6_210
*3176 FILLER_6_213
*3177 FILLER_6_216
*3178 FILLER_6_219
*3179 FILLER_6_22
*3180 FILLER_6_222
*3181 FILLER_6_225
*3182 FILLER_6_228
*3183 FILLER_6_25
*3184 FILLER_6_261
*3185 FILLER_6_264
*3186 FILLER_6_267
*3187 FILLER_6_270
*3188 FILLER_6_29
*3189 FILLER_6_3
*3190 FILLER_6_303
*3191 FILLER_6_306
*3192 FILLER_6_309
*3193 FILLER_6_32
*3194 FILLER_6_334
*3195 FILLER_6_345
*3196 FILLER_6_348
*3197 FILLER_6_358
*3198 FILLER_6_361
*3199 FILLER_6_365
*3200 FILLER_6_368
*3201 FILLER_6_371
*3202 FILLER_6_374
*3203 FILLER_6_388
*3204 FILLER_6_391
*3205 FILLER_6_405
*3206 FILLER_6_408
*3207 FILLER_6_411
*3208 FILLER_6_419
*3209 FILLER_6_421
*3210 FILLER_6_424
*3211 FILLER_6_430
*3212 FILLER_6_433
*3213 FILLER_6_436
*3214 FILLER_6_439
*3215 FILLER_6_442
*3216 FILLER_6_445
*3217 FILLER_6_452
*3218 FILLER_6_455
*3219 FILLER_6_458
*3220 FILLER_6_461
*3221 FILLER_6_464
*3222 FILLER_6_467
*3223 FILLER_6_470
*3224 FILLER_6_473
*3225 FILLER_6_477
*3226 FILLER_6_480
*3227 FILLER_6_494
*3228 FILLER_6_497
*3229 FILLER_6_504
*3230 FILLER_6_507
*3231 FILLER_6_510
*3232 FILLER_6_513
*3233 FILLER_6_541
*3234 FILLER_6_544
*3235 FILLER_6_547
*3236 FILLER_6_55
*3237 FILLER_6_557
*3238 FILLER_6_560
*3239 FILLER_6_575
*3240 FILLER_6_585
*3241 FILLER_6_589
*3242 FILLER_6_592
*3243 FILLER_6_6
*3244 FILLER_6_602
*3245 FILLER_6_634
*3246 FILLER_6_643
*3247 FILLER_6_65
*3248 FILLER_6_653
*3249 FILLER_6_656
*3250 FILLER_6_68
*3251 FILLER_6_85
*3252 FILLER_6_88
*3253 FILLER_6_9
*3254 FILLER_6_91
*3255 FILLER_6_94
*3256 FILLER_6_97
*3257 FILLER_7_101
*3258 FILLER_7_104
*3259 FILLER_7_107
*3260 FILLER_7_110
*3261 FILLER_7_113
*3262 FILLER_7_12
*3263 FILLER_7_132
*3264 FILLER_7_135
*3265 FILLER_7_138
*3266 FILLER_7_141
*3267 FILLER_7_144
*3268 FILLER_7_147
*3269 FILLER_7_150
*3270 FILLER_7_161
*3271 FILLER_7_164
*3272 FILLER_7_167
*3273 FILLER_7_169
*3274 FILLER_7_172
*3275 FILLER_7_175
*3276 FILLER_7_178
*3277 FILLER_7_181
*3278 FILLER_7_184
*3279 FILLER_7_187
*3280 FILLER_7_190
*3281 FILLER_7_193
*3282 FILLER_7_196
*3283 FILLER_7_205
*3284 FILLER_7_208
*3285 FILLER_7_211
*3286 FILLER_7_214
*3287 FILLER_7_217
*3288 FILLER_7_220
*3289 FILLER_7_223
*3290 FILLER_7_225
*3291 FILLER_7_228
*3292 FILLER_7_266
*3293 FILLER_7_269
*3294 FILLER_7_281
*3295 FILLER_7_284
*3296 FILLER_7_3
*3297 FILLER_7_30
*3298 FILLER_7_323
*3299 FILLER_7_33
*3300 FILLER_7_333
*3301 FILLER_7_337
*3302 FILLER_7_345
*3303 FILLER_7_348
*3304 FILLER_7_351
*3305 FILLER_7_354
*3306 FILLER_7_357
*3307 FILLER_7_360
*3308 FILLER_7_363
*3309 FILLER_7_366
*3310 FILLER_7_369
*3311 FILLER_7_377
*3312 FILLER_7_380
*3313 FILLER_7_383
*3314 FILLER_7_386
*3315 FILLER_7_389
*3316 FILLER_7_393
*3317 FILLER_7_396
*3318 FILLER_7_399
*3319 FILLER_7_402
*3320 FILLER_7_405
*3321 FILLER_7_408
*3322 FILLER_7_411
*3323 FILLER_7_414
*3324 FILLER_7_417
*3325 FILLER_7_420
*3326 FILLER_7_423
*3327 FILLER_7_426
*3328 FILLER_7_429
*3329 FILLER_7_432
*3330 FILLER_7_435
*3331 FILLER_7_438
*3332 FILLER_7_441
*3333 FILLER_7_444
*3334 FILLER_7_447
*3335 FILLER_7_449
*3336 FILLER_7_452
*3337 FILLER_7_455
*3338 FILLER_7_458
*3339 FILLER_7_461
*3340 FILLER_7_464
*3341 FILLER_7_467
*3342 FILLER_7_470
*3343 FILLER_7_48
*3344 FILLER_7_484
*3345 FILLER_7_487
*3346 FILLER_7_490
*3347 FILLER_7_493
*3348 FILLER_7_496
*3349 FILLER_7_505
*3350 FILLER_7_508
*3351 FILLER_7_51
*3352 FILLER_7_511
*3353 FILLER_7_514
*3354 FILLER_7_517
*3355 FILLER_7_520
*3356 FILLER_7_523
*3357 FILLER_7_54
*3358 FILLER_7_546
*3359 FILLER_7_549
*3360 FILLER_7_552
*3361 FILLER_7_555
*3362 FILLER_7_558
*3363 FILLER_7_561
*3364 FILLER_7_564
*3365 FILLER_7_57
*3366 FILLER_7_580
*3367 FILLER_7_583
*3368 FILLER_7_586
*3369 FILLER_7_589
*3370 FILLER_7_6
*3371 FILLER_7_60
*3372 FILLER_7_613
*3373 FILLER_7_625
*3374 FILLER_7_63
*3375 FILLER_7_655
*3376 FILLER_7_658
*3377 FILLER_7_66
*3378 FILLER_7_69
*3379 FILLER_7_72
*3380 FILLER_7_75
*3381 FILLER_7_86
*3382 FILLER_7_89
*3383 FILLER_7_9
*3384 FILLER_7_92
*3385 FILLER_7_95
*3386 FILLER_7_98
*3387 FILLER_8_126
*3388 FILLER_8_129
*3389 FILLER_8_132
*3390 FILLER_8_135
*3391 FILLER_8_138
*3392 FILLER_8_141
*3393 FILLER_8_144
*3394 FILLER_8_168
*3395 FILLER_8_171
*3396 FILLER_8_174
*3397 FILLER_8_177
*3398 FILLER_8_180
*3399 FILLER_8_183
*3400 FILLER_8_186
*3401 FILLER_8_205
*3402 FILLER_8_208
*3403 FILLER_8_211
*3404 FILLER_8_214
*3405 FILLER_8_217
*3406 FILLER_8_220
*3407 FILLER_8_223
*3408 FILLER_8_226
*3409 FILLER_8_229
*3410 FILLER_8_232
*3411 FILLER_8_235
*3412 FILLER_8_238
*3413 FILLER_8_248
*3414 FILLER_8_251
*3415 FILLER_8_26
*3416 FILLER_8_261
*3417 FILLER_8_264
*3418 FILLER_8_267
*3419 FILLER_8_270
*3420 FILLER_8_273
*3421 FILLER_8_3
*3422 FILLER_8_304
*3423 FILLER_8_307
*3424 FILLER_8_325
*3425 FILLER_8_328
*3426 FILLER_8_331
*3427 FILLER_8_334
*3428 FILLER_8_337
*3429 FILLER_8_340
*3430 FILLER_8_343
*3431 FILLER_8_346
*3432 FILLER_8_349
*3433 FILLER_8_352
*3434 FILLER_8_355
*3435 FILLER_8_363
*3436 FILLER_8_373
*3437 FILLER_8_376
*3438 FILLER_8_379
*3439 FILLER_8_382
*3440 FILLER_8_385
*3441 FILLER_8_399
*3442 FILLER_8_402
*3443 FILLER_8_405
*3444 FILLER_8_408
*3445 FILLER_8_411
*3446 FILLER_8_414
*3447 FILLER_8_417
*3448 FILLER_8_421
*3449 FILLER_8_424
*3450 FILLER_8_427
*3451 FILLER_8_430
*3452 FILLER_8_433
*3453 FILLER_8_441
*3454 FILLER_8_444
*3455 FILLER_8_447
*3456 FILLER_8_450
*3457 FILLER_8_453
*3458 FILLER_8_456
*3459 FILLER_8_459
*3460 FILLER_8_490
*3461 FILLER_8_493
*3462 FILLER_8_496
*3463 FILLER_8_499
*3464 FILLER_8_50
*3465 FILLER_8_514
*3466 FILLER_8_517
*3467 FILLER_8_520
*3468 FILLER_8_53
*3469 FILLER_8_541
*3470 FILLER_8_544
*3471 FILLER_8_547
*3472 FILLER_8_550
*3473 FILLER_8_56
*3474 FILLER_8_560
*3475 FILLER_8_589
*3476 FILLER_8_592
*3477 FILLER_8_595
*3478 FILLER_8_598
*3479 FILLER_8_601
*3480 FILLER_8_604
*3481 FILLER_8_607
*3482 FILLER_8_610
*3483 FILLER_8_613
*3484 FILLER_8_616
*3485 FILLER_8_642
*3486 FILLER_8_645
*3487 FILLER_8_66
*3488 FILLER_8_667
*3489 FILLER_8_69
*3490 FILLER_8_82
*3491 FILLER_8_85
*3492 FILLER_8_88
*3493 FILLER_8_91
*3494 FILLER_8_94
*3495 FILLER_9_102
*3496 FILLER_9_121
*3497 FILLER_9_124
*3498 FILLER_9_127
*3499 FILLER_9_136
*3500 FILLER_9_139
*3501 FILLER_9_142
*3502 FILLER_9_145
*3503 FILLER_9_169
*3504 FILLER_9_172
*3505 FILLER_9_203
*3506 FILLER_9_222
*3507 FILLER_9_225
*3508 FILLER_9_228
*3509 FILLER_9_250
*3510 FILLER_9_253
*3511 FILLER_9_26
*3512 FILLER_9_264
*3513 FILLER_9_274
*3514 FILLER_9_277
*3515 FILLER_9_281
*3516 FILLER_9_29
*3517 FILLER_9_292
*3518 FILLER_9_3
*3519 FILLER_9_324
*3520 FILLER_9_329
*3521 FILLER_9_332
*3522 FILLER_9_335
*3523 FILLER_9_337
*3524 FILLER_9_375
*3525 FILLER_9_378
*3526 FILLER_9_381
*3527 FILLER_9_384
*3528 FILLER_9_393
*3529 FILLER_9_40
*3530 FILLER_9_409
*3531 FILLER_9_43
*3532 FILLER_9_431
*3533 FILLER_9_434
*3534 FILLER_9_437
*3535 FILLER_9_440
*3536 FILLER_9_443
*3537 FILLER_9_446
*3538 FILLER_9_454
*3539 FILLER_9_457
*3540 FILLER_9_485
*3541 FILLER_9_488
*3542 FILLER_9_501
*3543 FILLER_9_505
*3544 FILLER_9_508
*3545 FILLER_9_524
*3546 FILLER_9_53
*3547 FILLER_9_547
*3548 FILLER_9_550
*3549 FILLER_9_566
*3550 FILLER_9_588
*3551 FILLER_9_591
*3552 FILLER_9_594
*3553 FILLER_9_597
*3554 FILLER_9_600
*3555 FILLER_9_603
*3556 FILLER_9_613
*3557 FILLER_9_626
*3558 FILLER_9_650
*3559 FILLER_9_86
*3560 FILLER_9_96
*3561 FILLER_9_99
*3562 PHY_EDGE_ROW_0_Left_28
*3563 PHY_EDGE_ROW_0_Right_0
*3564 PHY_EDGE_ROW_10_Left_38
*3565 PHY_EDGE_ROW_10_Right_10
*3566 PHY_EDGE_ROW_11_Left_39
*3567 PHY_EDGE_ROW_11_Right_11
*3568 PHY_EDGE_ROW_12_Left_40
*3569 PHY_EDGE_ROW_12_Right_12
*3570 PHY_EDGE_ROW_13_Left_41
*3571 PHY_EDGE_ROW_13_Right_13
*3572 PHY_EDGE_ROW_14_Left_42
*3573 PHY_EDGE_ROW_14_Right_14
*3574 PHY_EDGE_ROW_15_Left_43
*3575 PHY_EDGE_ROW_15_Right_15
*3576 PHY_EDGE_ROW_16_Left_44
*3577 PHY_EDGE_ROW_16_Right_16
*3578 PHY_EDGE_ROW_17_Left_45
*3579 PHY_EDGE_ROW_17_Right_17
*3580 PHY_EDGE_ROW_18_Left_46
*3581 PHY_EDGE_ROW_18_Right_18
*3582 PHY_EDGE_ROW_19_Left_47
*3583 PHY_EDGE_ROW_19_Right_19
*3584 PHY_EDGE_ROW_1_Left_29
*3585 PHY_EDGE_ROW_1_Right_1
*3586 PHY_EDGE_ROW_20_Left_48
*3587 PHY_EDGE_ROW_20_Right_20
*3588 PHY_EDGE_ROW_21_Left_49
*3589 PHY_EDGE_ROW_21_Right_21
*3590 PHY_EDGE_ROW_22_Left_50
*3591 PHY_EDGE_ROW_22_Right_22
*3592 PHY_EDGE_ROW_23_Left_51
*3593 PHY_EDGE_ROW_23_Right_23
*3594 PHY_EDGE_ROW_24_Left_52
*3595 PHY_EDGE_ROW_24_Right_24
*3596 PHY_EDGE_ROW_25_Left_53
*3597 PHY_EDGE_ROW_25_Right_25
*3598 PHY_EDGE_ROW_26_Left_54
*3599 PHY_EDGE_ROW_26_Right_26
*3600 PHY_EDGE_ROW_27_Left_55
*3601 PHY_EDGE_ROW_27_Right_27
*3602 PHY_EDGE_ROW_2_Left_30
*3603 PHY_EDGE_ROW_2_Right_2
*3604 PHY_EDGE_ROW_3_Left_31
*3605 PHY_EDGE_ROW_3_Right_3
*3606 PHY_EDGE_ROW_4_Left_32
*3607 PHY_EDGE_ROW_4_Right_4
*3608 PHY_EDGE_ROW_5_Left_33
*3609 PHY_EDGE_ROW_5_Right_5
*3610 PHY_EDGE_ROW_6_Left_34
*3611 PHY_EDGE_ROW_6_Right_6
*3612 PHY_EDGE_ROW_7_Left_35
*3613 PHY_EDGE_ROW_7_Right_7
*3614 PHY_EDGE_ROW_8_Left_36
*3615 PHY_EDGE_ROW_8_Right_8
*3616 PHY_EDGE_ROW_9_Left_37
*3617 PHY_EDGE_ROW_9_Right_9
*3618 TAP_TAPCELL_ROW_0_56
*3619 TAP_TAPCELL_ROW_0_57
*3620 TAP_TAPCELL_ROW_0_58
*3621 TAP_TAPCELL_ROW_0_59
*3622 TAP_TAPCELL_ROW_0_60
*3623 TAP_TAPCELL_ROW_0_61
*3624 TAP_TAPCELL_ROW_0_62
*3625 TAP_TAPCELL_ROW_0_63
*3626 TAP_TAPCELL_ROW_0_64
*3627 TAP_TAPCELL_ROW_0_65
*3628 TAP_TAPCELL_ROW_0_66
*3629 TAP_TAPCELL_ROW_0_67
*3630 TAP_TAPCELL_ROW_0_68
*3631 TAP_TAPCELL_ROW_0_69
*3632 TAP_TAPCELL_ROW_0_70
*3633 TAP_TAPCELL_ROW_0_71
*3634 TAP_TAPCELL_ROW_0_72
*3635 TAP_TAPCELL_ROW_0_73
*3636 TAP_TAPCELL_ROW_0_74
*3637 TAP_TAPCELL_ROW_0_75
*3638 TAP_TAPCELL_ROW_0_76
*3639 TAP_TAPCELL_ROW_0_77
*3640 TAP_TAPCELL_ROW_0_78
*3641 TAP_TAPCELL_ROW_10_182
*3642 TAP_TAPCELL_ROW_10_183
*3643 TAP_TAPCELL_ROW_10_184
*3644 TAP_TAPCELL_ROW_10_185
*3645 TAP_TAPCELL_ROW_10_186
*3646 TAP_TAPCELL_ROW_10_187
*3647 TAP_TAPCELL_ROW_10_188
*3648 TAP_TAPCELL_ROW_10_189
*3649 TAP_TAPCELL_ROW_10_190
*3650 TAP_TAPCELL_ROW_10_191
*3651 TAP_TAPCELL_ROW_10_192
*3652 TAP_TAPCELL_ROW_10_193
*3653 TAP_TAPCELL_ROW_11_194
*3654 TAP_TAPCELL_ROW_11_195
*3655 TAP_TAPCELL_ROW_11_196
*3656 TAP_TAPCELL_ROW_11_197
*3657 TAP_TAPCELL_ROW_11_198
*3658 TAP_TAPCELL_ROW_11_199
*3659 TAP_TAPCELL_ROW_11_200
*3660 TAP_TAPCELL_ROW_11_201
*3661 TAP_TAPCELL_ROW_11_202
*3662 TAP_TAPCELL_ROW_11_203
*3663 TAP_TAPCELL_ROW_11_204
*3664 TAP_TAPCELL_ROW_12_205
*3665 TAP_TAPCELL_ROW_12_206
*3666 TAP_TAPCELL_ROW_12_207
*3667 TAP_TAPCELL_ROW_12_208
*3668 TAP_TAPCELL_ROW_12_209
*3669 TAP_TAPCELL_ROW_12_210
*3670 TAP_TAPCELL_ROW_12_211
*3671 TAP_TAPCELL_ROW_12_212
*3672 TAP_TAPCELL_ROW_12_213
*3673 TAP_TAPCELL_ROW_12_214
*3674 TAP_TAPCELL_ROW_12_215
*3675 TAP_TAPCELL_ROW_12_216
*3676 TAP_TAPCELL_ROW_13_217
*3677 TAP_TAPCELL_ROW_13_218
*3678 TAP_TAPCELL_ROW_13_219
*3679 TAP_TAPCELL_ROW_13_220
*3680 TAP_TAPCELL_ROW_13_221
*3681 TAP_TAPCELL_ROW_13_222
*3682 TAP_TAPCELL_ROW_13_223
*3683 TAP_TAPCELL_ROW_13_224
*3684 TAP_TAPCELL_ROW_13_225
*3685 TAP_TAPCELL_ROW_13_226
*3686 TAP_TAPCELL_ROW_13_227
*3687 TAP_TAPCELL_ROW_14_228
*3688 TAP_TAPCELL_ROW_14_229
*3689 TAP_TAPCELL_ROW_14_230
*3690 TAP_TAPCELL_ROW_14_231
*3691 TAP_TAPCELL_ROW_14_232
*3692 TAP_TAPCELL_ROW_14_233
*3693 TAP_TAPCELL_ROW_14_234
*3694 TAP_TAPCELL_ROW_14_235
*3695 TAP_TAPCELL_ROW_14_236
*3696 TAP_TAPCELL_ROW_14_237
*3697 TAP_TAPCELL_ROW_14_238
*3698 TAP_TAPCELL_ROW_14_239
*3699 TAP_TAPCELL_ROW_15_240
*3700 TAP_TAPCELL_ROW_15_241
*3701 TAP_TAPCELL_ROW_15_242
*3702 TAP_TAPCELL_ROW_15_243
*3703 TAP_TAPCELL_ROW_15_244
*3704 TAP_TAPCELL_ROW_15_245
*3705 TAP_TAPCELL_ROW_15_246
*3706 TAP_TAPCELL_ROW_15_247
*3707 TAP_TAPCELL_ROW_15_248
*3708 TAP_TAPCELL_ROW_15_249
*3709 TAP_TAPCELL_ROW_15_250
*3710 TAP_TAPCELL_ROW_16_251
*3711 TAP_TAPCELL_ROW_16_252
*3712 TAP_TAPCELL_ROW_16_253
*3713 TAP_TAPCELL_ROW_16_254
*3714 TAP_TAPCELL_ROW_16_255
*3715 TAP_TAPCELL_ROW_16_256
*3716 TAP_TAPCELL_ROW_16_257
*3717 TAP_TAPCELL_ROW_16_258
*3718 TAP_TAPCELL_ROW_16_259
*3719 TAP_TAPCELL_ROW_16_260
*3720 TAP_TAPCELL_ROW_16_261
*3721 TAP_TAPCELL_ROW_16_262
*3722 TAP_TAPCELL_ROW_17_263
*3723 TAP_TAPCELL_ROW_17_264
*3724 TAP_TAPCELL_ROW_17_265
*3725 TAP_TAPCELL_ROW_17_266
*3726 TAP_TAPCELL_ROW_17_267
*3727 TAP_TAPCELL_ROW_17_268
*3728 TAP_TAPCELL_ROW_17_269
*3729 TAP_TAPCELL_ROW_17_270
*3730 TAP_TAPCELL_ROW_17_271
*3731 TAP_TAPCELL_ROW_17_272
*3732 TAP_TAPCELL_ROW_17_273
*3733 TAP_TAPCELL_ROW_18_274
*3734 TAP_TAPCELL_ROW_18_275
*3735 TAP_TAPCELL_ROW_18_276
*3736 TAP_TAPCELL_ROW_18_277
*3737 TAP_TAPCELL_ROW_18_278
*3738 TAP_TAPCELL_ROW_18_279
*3739 TAP_TAPCELL_ROW_18_280
*3740 TAP_TAPCELL_ROW_18_281
*3741 TAP_TAPCELL_ROW_18_282
*3742 TAP_TAPCELL_ROW_18_283
*3743 TAP_TAPCELL_ROW_18_284
*3744 TAP_TAPCELL_ROW_18_285
*3745 TAP_TAPCELL_ROW_19_286
*3746 TAP_TAPCELL_ROW_19_287
*3747 TAP_TAPCELL_ROW_19_288
*3748 TAP_TAPCELL_ROW_19_289
*3749 TAP_TAPCELL_ROW_19_290
*3750 TAP_TAPCELL_ROW_19_291
*3751 TAP_TAPCELL_ROW_19_292
*3752 TAP_TAPCELL_ROW_19_293
*3753 TAP_TAPCELL_ROW_19_294
*3754 TAP_TAPCELL_ROW_19_295
*3755 TAP_TAPCELL_ROW_19_296
*3756 TAP_TAPCELL_ROW_1_79
*3757 TAP_TAPCELL_ROW_1_80
*3758 TAP_TAPCELL_ROW_1_81
*3759 TAP_TAPCELL_ROW_1_82
*3760 TAP_TAPCELL_ROW_1_83
*3761 TAP_TAPCELL_ROW_1_84
*3762 TAP_TAPCELL_ROW_1_85
*3763 TAP_TAPCELL_ROW_1_86
*3764 TAP_TAPCELL_ROW_1_87
*3765 TAP_TAPCELL_ROW_1_88
*3766 TAP_TAPCELL_ROW_1_89
*3767 TAP_TAPCELL_ROW_20_297
*3768 TAP_TAPCELL_ROW_20_298
*3769 TAP_TAPCELL_ROW_20_299
*3770 TAP_TAPCELL_ROW_20_300
*3771 TAP_TAPCELL_ROW_20_301
*3772 TAP_TAPCELL_ROW_20_302
*3773 TAP_TAPCELL_ROW_20_303
*3774 TAP_TAPCELL_ROW_20_304
*3775 TAP_TAPCELL_ROW_20_305
*3776 TAP_TAPCELL_ROW_20_306
*3777 TAP_TAPCELL_ROW_20_307
*3778 TAP_TAPCELL_ROW_20_308
*3779 TAP_TAPCELL_ROW_21_309
*3780 TAP_TAPCELL_ROW_21_310
*3781 TAP_TAPCELL_ROW_21_311
*3782 TAP_TAPCELL_ROW_21_312
*3783 TAP_TAPCELL_ROW_21_313
*3784 TAP_TAPCELL_ROW_21_314
*3785 TAP_TAPCELL_ROW_21_315
*3786 TAP_TAPCELL_ROW_21_316
*3787 TAP_TAPCELL_ROW_21_317
*3788 TAP_TAPCELL_ROW_21_318
*3789 TAP_TAPCELL_ROW_21_319
*3790 TAP_TAPCELL_ROW_22_320
*3791 TAP_TAPCELL_ROW_22_321
*3792 TAP_TAPCELL_ROW_22_322
*3793 TAP_TAPCELL_ROW_22_323
*3794 TAP_TAPCELL_ROW_22_324
*3795 TAP_TAPCELL_ROW_22_325
*3796 TAP_TAPCELL_ROW_22_326
*3797 TAP_TAPCELL_ROW_22_327
*3798 TAP_TAPCELL_ROW_22_328
*3799 TAP_TAPCELL_ROW_22_329
*3800 TAP_TAPCELL_ROW_22_330
*3801 TAP_TAPCELL_ROW_22_331
*3802 TAP_TAPCELL_ROW_23_332
*3803 TAP_TAPCELL_ROW_23_333
*3804 TAP_TAPCELL_ROW_23_334
*3805 TAP_TAPCELL_ROW_23_335
*3806 TAP_TAPCELL_ROW_23_336
*3807 TAP_TAPCELL_ROW_23_337
*3808 TAP_TAPCELL_ROW_23_338
*3809 TAP_TAPCELL_ROW_23_339
*3810 TAP_TAPCELL_ROW_23_340
*3811 TAP_TAPCELL_ROW_23_341
*3812 TAP_TAPCELL_ROW_23_342
*3813 TAP_TAPCELL_ROW_24_343
*3814 TAP_TAPCELL_ROW_24_344
*3815 TAP_TAPCELL_ROW_24_345
*3816 TAP_TAPCELL_ROW_24_346
*3817 TAP_TAPCELL_ROW_24_347
*3818 TAP_TAPCELL_ROW_24_348
*3819 TAP_TAPCELL_ROW_24_349
*3820 TAP_TAPCELL_ROW_24_350
*3821 TAP_TAPCELL_ROW_24_351
*3822 TAP_TAPCELL_ROW_24_352
*3823 TAP_TAPCELL_ROW_24_353
*3824 TAP_TAPCELL_ROW_24_354
*3825 TAP_TAPCELL_ROW_25_355
*3826 TAP_TAPCELL_ROW_25_356
*3827 TAP_TAPCELL_ROW_25_357
*3828 TAP_TAPCELL_ROW_25_358
*3829 TAP_TAPCELL_ROW_25_359
*3830 TAP_TAPCELL_ROW_25_360
*3831 TAP_TAPCELL_ROW_25_361
*3832 TAP_TAPCELL_ROW_25_362
*3833 TAP_TAPCELL_ROW_25_363
*3834 TAP_TAPCELL_ROW_25_364
*3835 TAP_TAPCELL_ROW_25_365
*3836 TAP_TAPCELL_ROW_26_366
*3837 TAP_TAPCELL_ROW_26_367
*3838 TAP_TAPCELL_ROW_26_368
*3839 TAP_TAPCELL_ROW_26_369
*3840 TAP_TAPCELL_ROW_26_370
*3841 TAP_TAPCELL_ROW_26_371
*3842 TAP_TAPCELL_ROW_26_372
*3843 TAP_TAPCELL_ROW_26_373
*3844 TAP_TAPCELL_ROW_26_374
*3845 TAP_TAPCELL_ROW_26_375
*3846 TAP_TAPCELL_ROW_26_376
*3847 TAP_TAPCELL_ROW_26_377
*3848 TAP_TAPCELL_ROW_27_378
*3849 TAP_TAPCELL_ROW_27_379
*3850 TAP_TAPCELL_ROW_27_380
*3851 TAP_TAPCELL_ROW_27_381
*3852 TAP_TAPCELL_ROW_27_382
*3853 TAP_TAPCELL_ROW_27_383
*3854 TAP_TAPCELL_ROW_27_384
*3855 TAP_TAPCELL_ROW_27_385
*3856 TAP_TAPCELL_ROW_27_386
*3857 TAP_TAPCELL_ROW_27_387
*3858 TAP_TAPCELL_ROW_27_388
*3859 TAP_TAPCELL_ROW_27_389
*3860 TAP_TAPCELL_ROW_27_390
*3861 TAP_TAPCELL_ROW_27_391
*3862 TAP_TAPCELL_ROW_27_392
*3863 TAP_TAPCELL_ROW_27_393
*3864 TAP_TAPCELL_ROW_27_394
*3865 TAP_TAPCELL_ROW_27_395
*3866 TAP_TAPCELL_ROW_27_396
*3867 TAP_TAPCELL_ROW_27_397
*3868 TAP_TAPCELL_ROW_27_398
*3869 TAP_TAPCELL_ROW_27_399
*3870 TAP_TAPCELL_ROW_27_400
*3871 TAP_TAPCELL_ROW_2_100
*3872 TAP_TAPCELL_ROW_2_101
*3873 TAP_TAPCELL_ROW_2_90
*3874 TAP_TAPCELL_ROW_2_91
*3875 TAP_TAPCELL_ROW_2_92
*3876 TAP_TAPCELL_ROW_2_93
*3877 TAP_TAPCELL_ROW_2_94
*3878 TAP_TAPCELL_ROW_2_95
*3879 TAP_TAPCELL_ROW_2_96
*3880 TAP_TAPCELL_ROW_2_97
*3881 TAP_TAPCELL_ROW_2_98
*3882 TAP_TAPCELL_ROW_2_99
*3883 TAP_TAPCELL_ROW_3_102
*3884 TAP_TAPCELL_ROW_3_103
*3885 TAP_TAPCELL_ROW_3_104
*3886 TAP_TAPCELL_ROW_3_105
*3887 TAP_TAPCELL_ROW_3_106
*3888 TAP_TAPCELL_ROW_3_107
*3889 TAP_TAPCELL_ROW_3_108
*3890 TAP_TAPCELL_ROW_3_109
*3891 TAP_TAPCELL_ROW_3_110
*3892 TAP_TAPCELL_ROW_3_111
*3893 TAP_TAPCELL_ROW_3_112
*3894 TAP_TAPCELL_ROW_4_113
*3895 TAP_TAPCELL_ROW_4_114
*3896 TAP_TAPCELL_ROW_4_115
*3897 TAP_TAPCELL_ROW_4_116
*3898 TAP_TAPCELL_ROW_4_117
*3899 TAP_TAPCELL_ROW_4_118
*3900 TAP_TAPCELL_ROW_4_119
*3901 TAP_TAPCELL_ROW_4_120
*3902 TAP_TAPCELL_ROW_4_121
*3903 TAP_TAPCELL_ROW_4_122
*3904 TAP_TAPCELL_ROW_4_123
*3905 TAP_TAPCELL_ROW_4_124
*3906 TAP_TAPCELL_ROW_5_125
*3907 TAP_TAPCELL_ROW_5_126
*3908 TAP_TAPCELL_ROW_5_127
*3909 TAP_TAPCELL_ROW_5_128
*3910 TAP_TAPCELL_ROW_5_129
*3911 TAP_TAPCELL_ROW_5_130
*3912 TAP_TAPCELL_ROW_5_131
*3913 TAP_TAPCELL_ROW_5_132
*3914 TAP_TAPCELL_ROW_5_133
*3915 TAP_TAPCELL_ROW_5_134
*3916 TAP_TAPCELL_ROW_5_135
*3917 TAP_TAPCELL_ROW_6_136
*3918 TAP_TAPCELL_ROW_6_137
*3919 TAP_TAPCELL_ROW_6_138
*3920 TAP_TAPCELL_ROW_6_139
*3921 TAP_TAPCELL_ROW_6_140
*3922 TAP_TAPCELL_ROW_6_141
*3923 TAP_TAPCELL_ROW_6_142
*3924 TAP_TAPCELL_ROW_6_143
*3925 TAP_TAPCELL_ROW_6_144
*3926 TAP_TAPCELL_ROW_6_145
*3927 TAP_TAPCELL_ROW_6_146
*3928 TAP_TAPCELL_ROW_6_147
*3929 TAP_TAPCELL_ROW_7_148
*3930 TAP_TAPCELL_ROW_7_149
*3931 TAP_TAPCELL_ROW_7_150
*3932 TAP_TAPCELL_ROW_7_151
*3933 TAP_TAPCELL_ROW_7_152
*3934 TAP_TAPCELL_ROW_7_153
*3935 TAP_TAPCELL_ROW_7_154
*3936 TAP_TAPCELL_ROW_7_155
*3937 TAP_TAPCELL_ROW_7_156
*3938 TAP_TAPCELL_ROW_7_157
*3939 TAP_TAPCELL_ROW_7_158
*3940 TAP_TAPCELL_ROW_8_159
*3941 TAP_TAPCELL_ROW_8_160
*3942 TAP_TAPCELL_ROW_8_161
*3943 TAP_TAPCELL_ROW_8_162
*3944 TAP_TAPCELL_ROW_8_163
*3945 TAP_TAPCELL_ROW_8_164
*3946 TAP_TAPCELL_ROW_8_165
*3947 TAP_TAPCELL_ROW_8_166
*3948 TAP_TAPCELL_ROW_8_167
*3949 TAP_TAPCELL_ROW_8_168
*3950 TAP_TAPCELL_ROW_8_169
*3951 TAP_TAPCELL_ROW_8_170
*3952 TAP_TAPCELL_ROW_9_171
*3953 TAP_TAPCELL_ROW_9_172
*3954 TAP_TAPCELL_ROW_9_173
*3955 TAP_TAPCELL_ROW_9_174
*3956 TAP_TAPCELL_ROW_9_175
*3957 TAP_TAPCELL_ROW_9_176
*3958 TAP_TAPCELL_ROW_9_177
*3959 TAP_TAPCELL_ROW_9_178
*3960 TAP_TAPCELL_ROW_9_179
*3961 TAP_TAPCELL_ROW_9_180
*3962 TAP_TAPCELL_ROW_9_181
*3963 _0525_
*3964 _0526_
*3965 _0527_
*3966 _0528_
*3967 _0529_
*3968 _0530_
*3969 _0531_
*3970 _0532_
*3971 _0533_
*3972 _0534_
*3973 _0535_
*3974 _0536_
*3975 _0537_
*3976 _0538_
*3977 _0539_
*3978 _0540_
*3979 _0541_
*3980 _0542_
*3981 _0543_
*3982 _0544_
*3983 _0545_
*3984 _0546_
*3985 _0547_
*3986 _0548_
*3987 _0549_
*3988 _0550_
*3989 _0551_
*3990 _0552_
*3991 _0553_
*3992 _0554_
*3993 _0555_
*3994 _0556_
*3995 _0557_
*3996 _0558_
*3997 _0559_
*3998 _0560_
*3999 _0561_
*4000 _0562_
*4001 _0563_
*4002 _0564_
*4003 _0565_
*4004 _0566_
*4005 _0567_
*4006 _0568_
*4007 _0569_
*4008 _0570_
*4009 _0571_
*4010 _0572_
*4011 _0573_
*4012 _0574_
*4013 _0575_
*4014 _0576_
*4015 _0577_
*4016 _0578_
*4017 _0579_
*4018 _0580_
*4019 _0581_
*4020 _0582_
*4021 _0583_
*4022 _0584_
*4023 _0585_
*4024 _0586_
*4025 _0587_
*4026 _0588_
*4027 _0589_
*4028 _0590_
*4029 _0591_
*4030 _0592_
*4031 _0593_
*4032 _0594_
*4033 _0595_
*4034 _0596_
*4035 _0597_
*4036 _0598_
*4037 _0599_
*4038 _0600_
*4039 _0601_
*4040 _0602_
*4041 _0603_
*4042 _0604_
*4043 _0605_
*4044 _0606_
*4045 _0607_
*4046 _0608_
*4047 _0609_
*4048 _0610_
*4049 _0611_
*4050 _0612_
*4051 _0613_
*4052 _0614_
*4053 _0615_
*4054 _0616_
*4055 _0617_
*4056 _0618_
*4057 _0619_
*4058 _0620_
*4059 _0621_
*4060 _0622_
*4061 _0623_
*4062 _0624_
*4063 _0625_
*4064 _0626_
*4065 _0627_
*4066 _0628_
*4067 _0629_
*4068 _0630_
*4069 _0631_
*4070 _0632_
*4071 _0633_
*4072 _0634_
*4073 _0635_
*4074 _0636_
*4075 _0637_
*4076 _0638_
*4077 _0639_
*4078 _0640_
*4079 _0641_
*4080 _0642_
*4081 _0643_
*4082 _0644_
*4083 _0645_
*4084 _0646_
*4085 _0647_
*4086 _0648_
*4087 _0649_
*4088 _0650_
*4089 _0651_
*4090 _0652_
*4091 _0653_
*4092 _0654_
*4093 _0655_
*4094 _0656_
*4095 _0657_
*4096 _0658_
*4097 _0659_
*4098 _0660_
*4099 _0661_
*4100 _0662_
*4101 _0663_
*4102 _0664_
*4103 _0665_
*4104 _0666_
*4105 _0667_
*4106 _0668_
*4107 _0669_
*4108 _0670_
*4109 _0671_
*4110 _0672_
*4111 _0673_
*4112 _0674_
*4113 _0675_
*4114 _0676_
*4115 _0677_
*4116 _0678_
*4117 _0679_
*4118 _0680_
*4119 _0681_
*4120 _0682_
*4121 _0683_
*4122 _0684_
*4123 _0685_
*4124 _0686_
*4125 _0687_
*4126 _0688_
*4127 _0689_
*4128 _0690_
*4129 _0691_
*4130 _0692_
*4131 _0693_
*4132 _0694_
*4133 _0695_
*4134 _0696_
*4135 _0697_
*4136 _0698_
*4137 _0699_
*4138 _0700_
*4139 _0701_
*4140 _0702_
*4141 _0703_
*4142 _0704_
*4143 _0705_
*4144 _0706_
*4145 _0707_
*4146 _0708_
*4147 _0709_
*4148 _0710_
*4149 _0711_
*4150 _0712_
*4151 _0713_
*4152 _0714_
*4153 _0715_
*4154 _0716_
*4155 _0717_
*4156 _0718_
*4157 _0719_
*4158 _0720_
*4159 _0721_
*4160 _0722_
*4161 _0723_
*4162 _0724_
*4163 _0725_
*4164 _0726_
*4165 _0727_
*4166 _0728_
*4167 _0729_
*4168 _0730_
*4169 _0731_
*4170 _0732_
*4171 _0733_
*4172 _0734_
*4173 _0735_
*4174 _0736_
*4175 _0737_
*4176 _0738_
*4177 _0739_
*4178 _0740_
*4179 _0741_
*4180 _0742_
*4181 _0743_
*4182 _0744_
*4183 _0745_
*4184 _0746_
*4185 _0747_
*4186 _0748_
*4187 _0749_
*4188 _0750_
*4189 _0751_
*4190 _0752_
*4191 _0753_
*4192 _0754_
*4193 _0755_
*4194 _0756_
*4195 _0757_
*4196 _0758_
*4197 _0759_
*4198 _0760_
*4199 _0761_
*4200 _0762_
*4201 _0763_
*4202 _0764_
*4203 _0765_
*4204 _0766_
*4205 _0767_
*4206 _0768_
*4207 _0769_
*4208 _0770_
*4209 _0771_
*4210 _0772_
*4211 _0773_
*4212 _0774_
*4213 _0775_
*4214 _0776_
*4215 _0777_
*4216 _0778_
*4217 _0779_
*4218 _0780_
*4219 _0781_
*4220 _0782_
*4221 _0783_
*4222 _0784_
*4223 _0785_
*4224 _0786_
*4225 _0787_
*4226 _0788_
*4227 _0789_
*4228 _0790_
*4229 _0791_
*4230 _0792_
*4231 _0793_
*4232 _0794_
*4233 _0795_
*4234 _0796_
*4235 _0797_
*4236 _0798_
*4237 _0799_
*4238 _0800_
*4239 _0801_
*4240 _0802_
*4241 _0803_
*4242 _0804_
*4243 _0805_
*4244 _0806_
*4245 _0807_
*4246 _0808_
*4247 _0809_
*4248 _0810_
*4249 _0811_
*4250 _0812_
*4251 _0813_
*4252 _0814_
*4253 _0815_
*4254 _0816_
*4255 _0817_
*4256 _0818_
*4257 _0819_
*4258 _0820_
*4259 _0821_
*4260 _0822_
*4261 _0823_
*4262 _0824_
*4263 _0825_
*4264 _0826_
*4265 _0827_
*4266 _0828_
*4267 _0829_
*4268 _0830_
*4269 _0831_
*4270 _0832_
*4271 _0833_
*4272 _0834_
*4273 _0835_
*4274 _0836_
*4275 _0837_
*4276 _0838_
*4277 _0839_
*4278 _0840_
*4279 _0841_
*4280 _0842_
*4281 _0843_
*4282 _0844_
*4283 _0845_
*4284 _0846_
*4285 _0847_
*4286 _0848_
*4287 _0849_
*4288 _0850_
*4289 _0851_
*4290 _0852_
*4291 _0853_
*4292 _0854_
*4293 _0855_
*4294 _0856_
*4295 _0857_
*4296 _0858_
*4297 _0859_
*4298 _0860_
*4299 _0861_
*4300 _0862_
*4301 _0863_
*4302 _0864_
*4303 _0865_
*4304 _0866_
*4305 _0867_
*4306 _0868_
*4307 _0869_
*4308 _0870_
*4309 _0871_
*4310 _0872_
*4311 _0873_
*4312 _0874_
*4313 _0875_
*4314 _0876_
*4315 _0877_
*4316 _0878_
*4317 _0879_
*4318 _0880_
*4319 _0881_
*4320 _0882_
*4321 _0883_
*4322 _0884_
*4323 _0885_
*4324 _0886_
*4325 _0887_
*4326 _0888_
*4327 _0889_
*4328 _0890_
*4329 _0891_
*4330 _0892_
*4331 _0893_
*4332 _0894_
*4333 _0895_
*4334 _0896_
*4335 _0897_
*4336 _0898_
*4337 _0899_
*4338 _0900_
*4339 _0901_
*4340 _0902_
*4341 _0903_
*4342 _0904_
*4343 _0905_
*4344 _0906_
*4345 _0907_
*4346 _0908_
*4347 _0909_
*4348 _0910_
*4349 _0911_
*4350 _0912_
*4351 _0913_
*4352 _0914_
*4353 _0915_
*4354 _0916_
*4355 _0917_
*4356 _0918_
*4357 _0919_
*4358 _0920_
*4359 _0921_
*4360 _0922_
*4361 _0923_
*4362 _0924_
*4363 _0925_
*4364 _0926_
*4365 _0927_
*4366 _0928_
*4367 _0929_
*4368 _0930_
*4369 _0931_
*4370 _0932_
*4371 _0933_
*4372 _0934_
*4373 _0935_
*4374 _0936_
*4375 _0937_
*4376 _0938_
*4377 _0939_
*4378 _0940_
*4379 _0941_
*4380 _0942_
*4381 _0943_
*4382 _0944_
*4383 _0945_
*4384 _0946_
*4385 _0947_
*4386 _0948_
*4387 _0949_
*4388 _0950_
*4389 _0951_
*4390 _0952_
*4391 _0953_
*4392 _0954_
*4393 _0955_
*4394 _0956_
*4395 _0957_
*4396 _0958_
*4397 _0959_
*4398 _0960_
*4399 _0961_
*4400 _0962_
*4401 _0963_
*4402 _0964_
*4403 _0965_
*4404 _0966_
*4405 _0967_
*4406 _0968_
*4407 _0969_
*4408 _0970_
*4409 _0971_
*4410 _0972_
*4411 _0973_
*4412 _0974_
*4413 _0975_
*4414 _0976_
*4415 _0977_
*4416 _0978_
*4417 _0979_
*4418 _0980_
*4419 _0981_
*4420 _0982_
*4421 _0983_
*4422 _0984_
*4423 _0985_
*4424 _0986_
*4425 _0987_
*4426 _0988_
*4427 _0989_
*4428 _0990_
*4429 _0991_
*4430 _0992_
*4431 _0993_
*4432 _0994_
*4433 _0995_
*4434 _0996_
*4435 _0997_
*4436 _0998_
*4437 _0999_
*4438 _1000_
*4439 _1001_
*4440 _1002_
*4441 _1003_
*4442 _1004_
*4443 _1005_
*4444 _1006_
*4445 _1007_
*4446 _1008_
*4447 _1009_
*4448 _1010_
*4449 _1011_
*4450 _1012_
*4451 _1013_
*4452 _1014_
*4453 _1015_
*4454 _1016_
*4455 _1017_
*4456 _1018_
*4457 _1019_
*4458 _1020_
*4459 _1021_
*4460 _1022_
*4461 _1023_
*4462 _1024_
*4463 _1025_
*4464 _1026_
*4465 _1027_
*4466 _1028_
*4467 _1029_
*4468 _1030_
*4469 _1031_
*4470 _1032_
*4471 _1033_
*4472 _1034_
*4473 _1035_
*4474 _1036_
*4475 _1037_
*4476 _1038_
*4477 _1039_
*4478 _1040_
*4479 _1041_
*4480 _1042_
*4481 _1043_
*4482 _1044_
*4483 _1045_
*4484 _1046_
*4485 _1047_
*4486 _1048_
*4487 _1049_
*4488 _1050_
*4489 _1051_
*4490 _1052_
*4491 _1053_
*4492 _1054_
*4493 _1055_
*4494 _1056_
*4495 _1057_
*4496 _1058_
*4497 _1059_
*4498 _1060_
*4499 _1061_
*4500 _1062_
*4501 _1063_
*4502 _1064_
*4503 _1065_
*4504 _1066_
*4505 _1067_
*4506 _1068_
*4507 _1069_
*4508 _1070_
*4509 _1071_
*4510 _1072_
*4511 _1073_
*4512 _1074_
*4513 _1075_
*4514 _1076_
*4515 _1077_
*4516 _1078_
*4517 _1079_
*4518 _1080_
*4519 _1081_
*4520 _1082_
*4521 _1083_
*4522 _1084_
*4523 _1085_
*4524 _1086_
*4525 _1087_
*4526 _1088_
*4527 _1089_
*4528 _1090_
*4529 _1091_
*4530 _1092_
*4531 _1093_
*4532 _1094_
*4533 _1095_
*4534 _1096_
*4535 _1097_
*4536 _1098_
*4537 _1099_
*4538 _1100_
*4539 _1101_
*4540 _1102_
*4541 _1103_
*4542 _1104_
*4543 _1105_
*4544 _1106_
*4545 _1107_
*4546 _1108_
*4547 _1109_
*4548 _1110_
*4549 _1111_
*4550 _1112_
*4551 _1113_
*4552 _1114_
*4553 _1115_
*4554 _1116_
*4555 _1117_
*4556 _1118_
*4557 _1119_
*4558 _1120_
*4559 _1121_
*4560 _1122_
*4561 _1123_
*4562 _1124_
*4563 _1125_
*4564 _1126_
*4565 _1127_
*4566 _1128_
*4567 _1129_
*4568 _1130_
*4569 _1131_
*4570 _1132_
*4571 _1133_
*4572 _1134_
*4573 _1135_
*4574 _1136_
*4575 _1137_
*4576 _1138_
*4577 _1139_
*4578 _1140_
*4579 _1141_
*4580 _1142_
*4581 _1143_
*4582 _1144_
*4583 _1145_
*4584 _1146_
*4585 _1147_
*4586 _1148_
*4587 _1149_
*4588 _1150_
*4589 _1151_
*4590 _1152_
*4591 _1153_
*4592 _1154_
*4593 _1155_
*4594 _1156_
*4595 _1157_
*4596 _1158_
*4597 _1159_
*4598 _1160_
*4599 _1161_
*4600 _1162_
*4601 _1163_
*4602 _1164_
*4603 _1165_
*4604 _1166_
*4605 _1167_
*4606 _1168_
*4607 _1169_
*4608 _1170_
*4609 _1171_
*4610 _1172_
*4611 _1173_
*4612 _1174_
*4613 _1175_
*4614 _1176_
*4615 _1177_
*4616 _1178_
*4617 _1179_
*4618 _1180_
*4619 _1181_
*4620 _1182_
*4621 _1183_
*4622 _1184_
*4623 _1185_
*4624 _1186_
*4625 _1187_
*4626 _1188_
*4627 _1189_
*4628 _1190_
*4629 _1191_
*4630 _1192_
*4631 _1193_
*4632 _1194_
*4633 _1195_
*4634 _1196_
*4635 _1197_
*4636 _1198_
*4637 _1199_
*4638 _1200_
*4639 _1201_
*4640 _1202_
*4641 _1203_
*4642 _1204_
*4643 _1205_
*4644 _1206_
*4645 _1207_
*4646 _1208_
*4647 _1209_
*4648 _1210_
*4649 _1211_
*4650 _1212_
*4651 _1213_
*4652 _1214_
*4653 _1215_
*4654 _1216_
*4655 _1217_
*4656 _1218_
*4657 _1219_
*4658 _1220_
*4659 _1221_
*4660 _1222_
*4661 _1223_
*4662 _1224_
*4663 _1225_
*4664 _1226_
*4665 _1227_
*4666 _1228_
*4667 _1229_
*4668 _1230_
*4669 _1231_
*4670 _1232_
*4671 _1233_
*4672 _1234_
*4673 _1235_
*4674 _1236_
*4675 _1237_
*4676 _1238_
*4677 _1239_
*4678 _1240_
*4679 _1241_
*4680 _1242_
*4681 _1243_
*4682 _1244_
*4683 _1245_
*4684 _1246_
*4685 _1247_
*4686 _1248_
*4687 _1249_
*4688 _1250_
*4689 _1251_
*4690 clkbuf_0_clk
*4691 clkbuf_1_0__f_clk
*4692 clkbuf_1_1__f_clk
*4693 clkbuf_leaf_0_clk
*4694 clkbuf_leaf_10_clk
*4695 clkbuf_leaf_11_clk
*4696 clkbuf_leaf_12_clk
*4697 clkbuf_leaf_13_clk
*4698 clkbuf_leaf_14_clk
*4699 clkbuf_leaf_15_clk
*4700 clkbuf_leaf_1_clk
*4701 clkbuf_leaf_2_clk
*4702 clkbuf_leaf_3_clk
*4703 clkbuf_leaf_4_clk
*4704 clkbuf_leaf_5_clk
*4705 clkbuf_leaf_6_clk
*4706 clkbuf_leaf_7_clk
*4707 clkbuf_leaf_8_clk
*4708 clkbuf_leaf_9_clk
*4709 clkload0
*4710 clkload1
*4711 clkload10
*4712 clkload11
*4713 clkload12
*4714 clkload13
*4715 clkload2
*4716 clkload3
*4717 clkload4
*4718 clkload5
*4719 clkload6
*4720 clkload7
*4721 clkload8
*4722 clkload9
*4723 fanout100
*4724 fanout102
*4725 fanout103
*4726 fanout105
*4727 fanout106
*4728 fanout108
*4729 fanout109
*4730 fanout110
*4731 fanout112
*4732 fanout114
*4733 fanout115
*4734 fanout117
*4735 fanout118
*4736 fanout120
*4737 fanout122
*4738 fanout123
*4739 fanout24
*4740 fanout35
*4741 fanout36
*4742 fanout37
*4743 fanout38
*4744 fanout42
*4745 fanout44
*4746 fanout46
*4747 fanout47
*4748 fanout49
*4749 fanout50
*4750 fanout52
*4751 fanout53
*4752 fanout55
*4753 fanout56
*4754 fanout58
*4755 fanout59
*4756 fanout60
*4757 fanout61
*4758 fanout62
*4759 fanout63
*4760 fanout64
*4761 fanout65
*4762 fanout66
*4763 fanout67
*4764 fanout68
*4765 fanout69
*4766 fanout70
*4767 fanout71
*4768 fanout72
*4769 fanout73
*4770 fanout74
*4771 fanout75
*4772 fanout76
*4773 fanout77
*4774 fanout78
*4775 fanout79
*4776 fanout80
*4777 fanout81
*4778 fanout83
*4779 fanout84
*4780 fanout86
*4781 fanout87
*4782 fanout89
*4783 fanout91
*4784 fanout92
*4785 fanout93
*4786 fanout94
*4787 fanout96
*4788 fanout97
*4789 fanout99
*4790 hold139
*4791 hold140
*4792 hold141
*4793 hold142
*4794 hold143
*4795 hold144
*4796 hold145
*4797 hold146
*4798 hold147
*4799 hold148
*4800 hold149
*4801 hold150
*4802 hold151
*4803 hold152
*4804 hold153
*4805 hold154
*4806 hold155
*4807 hold156
*4808 hold157
*4809 hold158
*4810 hold159
*4811 hold160
*4812 hold161
*4813 hold162
*4814 hold163
*4815 hold164
*4816 hold165
*4817 hold166
*4818 hold167
*4819 hold168
*4820 hold169
*4821 hold170
*4822 hold171
*4823 hold172
*4824 hold173
*4825 hold174
*4826 hold175
*4827 hold176
*4828 hold177
*4829 hold178
*4830 hold179
*4831 hold180
*4832 hold181
*4833 hold182
*4834 hold183
*4835 hold184
*4836 hold185
*4837 hold186
*4838 hold187
*4839 hold188
*4840 hold189
*4841 hold190
*4842 hold191
*4843 hold192
*4844 hold193
*4845 hold194
*4846 hold195
*4847 hold196
*4848 hold197
*4849 hold198
*4850 hold199
*4851 hold200
*4852 hold201
*4853 hold202
*4854 hold203
*4855 hold204
*4856 hold205
*4857 hold206
*4858 hold207
*4859 hold208
*4860 hold209
*4861 hold210
*4862 hold211
*4863 hold212
*4864 hold213
*4865 hold214
*4866 hold215
*4867 hold216
*4868 hold217
*4869 hold218
*4870 hold219
*4871 hold220
*4872 hold221
*4873 hold222
*4874 hold223
*4875 hold224
*4876 hold225
*4877 hold226
*4878 hold227
*4879 hold228
*4880 hold229
*4881 hold230
*4882 hold231
*4883 hold232
*4884 hold233
*4885 hold234
*4886 hold235
*4887 hold236
*4888 hold237
*4889 hold238
*4890 hold239
*4891 hold240
*4892 hold241
*4893 hold242
*4894 hold243
*4895 hold244
*4896 hold245
*4897 hold246
*4898 hold247
*4899 hold248
*4900 hold249
*4901 hold250
*4902 hold251
*4903 hold252
*4904 hold253
*4905 hold254
*4906 hold255
*4907 hold256
*4908 hold257
*4909 hold258
*4910 hold259
*4911 hold260
*4912 hold261
*4913 hold262
*4914 hold263
*4915 hold264
*4916 hold265
*4917 hold266
*4918 hold267
*4919 hold268
*4920 hold269
*4921 hold270
*4922 hold271
*4923 hold272
*4924 hold273
*4925 hold274
*4926 hold275
*4927 hold276
*4928 hold277
*4929 hold278
*4930 hold279
*4931 hold280
*4932 hold281
*4933 hold282
*4934 hold283
*4935 hold284
*4936 hold285
*4937 hold286
*4938 hold287
*4939 hold288
*4940 hold289
*4941 hold290
*4942 hold291
*4943 hold292
*4944 hold293
*4945 hold294
*4946 hold295
*4947 hold296
*4948 hold297
*4949 hold298
*4950 hold299
*4951 hold300
*4952 hold301
*4953 hold302
*4954 hold303
*4955 hold304
*4956 hold305
*4957 hold306
*4958 hold307
*4959 hold308
*4960 hold309
*4961 hold310
*4962 hold311
*4963 hold312
*4964 hold313
*4965 hold314
*4966 hold315
*4967 hold316
*4968 hold317
*4969 hold318
*4970 hold319
*4971 hold320
*4972 hold321
*4973 hold322
*4974 hold323
*4975 hold324
*4976 hold325
*4977 hold326
*4978 hold327
*4979 hold328
*4980 hold329
*4981 hold330
*4982 hold331
*4983 hold332
*4984 hold333
*4985 hold334
*4986 hold335
*4987 hold336
*4988 hold337
*4989 hold338
*4990 hold339
*4991 hold340
*4992 hold341
*4993 hold342
*4994 hold343
*4995 hold344
*4996 hold345
*4997 hold346
*4998 hold347
*4999 hold348
*5000 hold349
*5001 hold350
*5002 hold351
*5003 hold352
*5004 hold353
*5005 hold354
*5006 hold355
*5007 hold356
*5008 hold357
*5009 hold358
*5010 hold359
*5011 hold360
*5012 hold361
*5013 hold362
*5014 hold363
*5015 hold364
*5016 hold365
*5017 hold366
*5018 hold367
*5019 hold368
*5020 hold369
*5021 hold370
*5022 input1
*5023 input10
*5024 input11
*5025 input12
*5026 input13
*5027 input14
*5028 input15
*5029 input2
*5030 input3
*5031 input4
*5032 input5
*5033 input6
*5034 input7
*5035 input8
*5036 input9
*5037 load_slew101
*5038 load_slew104
*5039 load_slew107
*5040 load_slew111
*5041 load_slew113
*5042 load_slew116
*5043 load_slew119
*5044 load_slew121
*5045 load_slew45
*5046 load_slew48
*5047 load_slew51
*5048 load_slew54
*5049 load_slew57
*5050 load_slew82
*5051 load_slew85
*5052 load_slew88
*5053 load_slew90
*5054 load_slew95
*5055 load_slew98
*5056 max_cap26
*5057 max_cap30
*5058 max_cap32
*5059 max_cap33
*5060 max_cap34
*5061 max_cap39
*5062 max_cap40
*5063 max_cap41
*5064 max_cap43
*5065 output16
*5066 output17
*5067 output18
*5068 output19
*5069 output20
*5070 output21
*5071 output22
*5072 output23
*5073 tt_um_flowguard_stress
*5074 tt_um_flowguard_stress_124
*5075 tt_um_flowguard_stress_125
*5076 tt_um_flowguard_stress_126
*5077 tt_um_flowguard_stress_127
*5078 tt_um_flowguard_stress_128
*5079 tt_um_flowguard_stress_129
*5080 tt_um_flowguard_stress_130
*5081 tt_um_flowguard_stress_131
*5082 tt_um_flowguard_stress_132
*5083 tt_um_flowguard_stress_133
*5084 tt_um_flowguard_stress_134
*5085 tt_um_flowguard_stress_135
*5086 tt_um_flowguard_stress_136
*5087 tt_um_flowguard_stress_137
*5088 tt_um_flowguard_stress_138
*5089 wire25
*5090 wire27
*5091 wire28
*5092 wire29
*5093 wire31

*PORTS
clk I
ena I
rst_n I
ui_in[0] I
ui_in[1] I
ui_in[2] I
ui_in[3] I
ui_in[4] I
ui_in[5] I
ui_in[6] I
ui_in[7] I
uio_in[0] I
uio_in[1] I
uio_in[2] I
uio_in[3] I
uio_in[4] I
uio_in[5] I
uio_in[6] I
uio_in[7] I
uio_oe[0] O
uio_oe[1] O
uio_oe[2] O
uio_oe[3] O
uio_oe[4] O
uio_oe[5] O
uio_oe[6] O
uio_oe[7] O
uio_out[0] O
uio_out[1] O
uio_out[2] O
uio_out[3] O
uio_out[4] O
uio_out[5] O
uio_out[6] O
uio_out[7] O
uo_out[0] O
uo_out[1] O
uo_out[2] O
uo_out[3] O
uo_out[4] O
uo_out[5] O
uo_out[6] O
uo_out[7] O

*D_NET *3 0.0260992
*CONN
*P clk I
*I *4690:A I *D sky130_fd_sc_hd__clkbuf_16
*CAP
1 clk 0.00893848
2 *4690:A 6.95381e-05
3 *3:34 0.000182929
4 *3:30 0.00905187
5 *4690:A *4750:A 6.2392e-05
6 *4690:A *611:23 2.26381e-05
7 *3:30 uio_oe[1] 3.29802e-05
8 *3:30 uio_out[6] 0.000347649
9 *3:30 *4064:A1 8.20561e-06
10 *3:30 *4104:A1 6.87023e-06
11 *3:30 *4140:A2 0
12 *3:30 *4554:D 3.9039e-05
13 *3:30 *4562:CLK 0
14 *3:30 *4562:D 4.44929e-05
15 *3:30 *4570:CLK 0.000102319
16 *3:30 *4586:D 4.9595e-05
17 *3:30 *4685:RESET_B 0
18 *3:30 *4697:A 0
19 *3:30 *4748:A 0.000361337
20 *3:30 *4759:A 0.000726911
21 *3:30 *4773:A 0.00155553
22 *3:30 *4842:A 3.55351e-05
23 *3:30 *4950:A 0.000154754
24 *3:30 *4984:A 3.76656e-06
25 *3:30 *255:18 0.000337384
26 *3:30 *268:51 0
27 *3:30 *270:56 0.000449779
28 *3:30 *270:60 0.00126259
29 *3:30 *611:23 8.86509e-05
30 *3:30 *626:53 7.50842e-05
31 *3:30 *700:10 0
32 *3:30 *901:8 7.32805e-06
33 *3:30 *969:33 0.000221979
34 *3:30 *984:16 0
35 *3:30 *985:16 1.01463e-05
36 *3:30 *994:25 0.00149728
37 *3:30 *998:10 3.04457e-05
38 *3:30 *1010:24 0
39 *3:30 *1013:40 0
40 *3:30 *1013:42 0
41 *3:30 *1025:14 0.000163024
42 *3:30 *1028:18 0.000102021
43 *3:34 *4991:A 0
44 *3:34 *611:23 5.66501e-05
*RES
1 clk *3:30 49.9833 
2 *3:30 *3:34 1.6725 
3 *3:34 *4690:A 2.9125 
*END

*D_NET *4 0.00274938
*CONN
*P ena I
*I *5022:A I *D sky130_fd_sc_hd__clkdlybuf4s25_1
*CAP
1 ena 0.000806532
2 *5022:A 0.000806532
3 *5022:A *3965:A_N 0
4 *5022:A *3965:C 0
5 *5022:A *3989:B 0
6 *5022:A *4775:A 4.82919e-05
7 *5022:A *5024:A 0.000522359
8 *5022:A *5025:A 0
9 *5022:A *695:8 0.000385333
10 *5022:A *695:23 0.000130374
11 *5022:A *718:10 0
12 *5022:A *1027:12 4.99619e-05
*RES
1 ena *5022:A 21.66 
*END

*D_NET *5 0.00363548
*CONN
*P rst_n I
*I *5029:A I *D sky130_fd_sc_hd__clkdlybuf4s25_1
*CAP
1 rst_n 0.000986067
2 *5029:A 0.000986067
3 *5029:A uio_oe[6] 0
4 *5029:A uio_out[4] 0.000462749
5 *5029:A *4734:A 0
6 *5029:A *4738:A 0.000398505
7 *5029:A *4900:A 0.000176974
8 *5029:A *4932:A 0.000129777
9 *5029:A *715:10 0.000356395
10 *5029:A *722:12 5.06358e-05
11 *5029:A *803:8 1.65286e-05
12 *5029:A *814:10 7.17831e-05
*RES
1 rst_n *5029:A 21.0127 
*END

*D_NET *6 0.00151299
*CONN
*P ui_in[0] I
*I *5030:A I *D sky130_fd_sc_hd__clkdlybuf4s25_1
*CAP
1 ui_in[0] 0.000717284
2 *5030:A 0.000717284
3 *5030:A *4773:A 0
4 *5030:A *4807:A 0
5 *5030:A *5027:A 0
6 *5030:A *1025:8 7.38688e-05
7 *5030:A *1025:14 4.55864e-06
*RES
1 ui_in[0] *5030:A 16.455 
*END

*D_NET *7 0.00141326
*CONN
*P ui_in[1] I
*I *5031:A I *D sky130_fd_sc_hd__clkdlybuf4s25_1
*CAP
1 ui_in[1] 0.000644181
2 *5031:A 0.000644181
3 *5031:A *265:6 0.0001249
*RES
1 ui_in[1] *5031:A 15.3 
*END

*D_NET *8 0.00150845
*CONN
*P ui_in[2] I
*I *5032:A I *D sky130_fd_sc_hd__clkdlybuf4s25_1
*CAP
1 ui_in[2] 0.000610902
2 *5032:A 0.000610902
3 *5032:A *4484:A0 8.53113e-06
4 *5032:A *5023:A 0
5 *5032:A *995:6 0.000278117
*RES
1 ui_in[2] *5032:A 15.12 
*END

*D_NET *9 0.00108367
*CONN
*P ui_in[3] I
*I *5033:A I *D sky130_fd_sc_hd__clkdlybuf4s25_1
*CAP
1 ui_in[3] 0.000541837
2 *5033:A 0.000541837
*RES
1 ui_in[3] *5033:A 13.05 
*END

*D_NET *10 0.00118897
*CONN
*P ui_in[4] I
*I *5034:A I *D sky130_fd_sc_hd__clkdlybuf4s25_1
*CAP
1 ui_in[4] 0.000594486
2 *5034:A 0.000594486
3 *5034:A *5035:A 0
*RES
1 ui_in[4] *5034:A 14.16 
*END

*D_NET *11 0.00147033
*CONN
*P ui_in[5] I
*I *5035:A I *D sky130_fd_sc_hd__clkdlybuf4s25_1
*CAP
1 ui_in[5] 0.000674089
2 *5035:A 0.000674089
3 *5035:A *266:26 0.000122155
4 *5034:A *5035:A 0
*RES
1 ui_in[5] *5035:A 15.99 
*END

*D_NET *12 0.00110936
*CONN
*P ui_in[6] I
*I *5036:A I *D sky130_fd_sc_hd__clkdlybuf4s25_1
*CAP
1 ui_in[6] 0.00052905
2 *5036:A 0.00052905
3 *5036:A *4484:S 4.82919e-05
4 *5036:A *4781:A 2.97004e-06
*RES
1 ui_in[6] *5036:A 13.05 
*END

*D_NET *13 0.00130916
*CONN
*P ui_in[7] I
*I *5023:A I *D sky130_fd_sc_hd__clkdlybuf4s25_1
*CAP
1 ui_in[7] 0.000529685
2 *5023:A 0.000529685
3 *5023:A *4011:A1 0.000124895
4 *5023:A *4484:S 0.000124895
5 *5032:A *5023:A 0
*RES
1 ui_in[7] *5023:A 13.74 
*END

*D_NET *14 0.00334183
*CONN
*P uio_in[0] I
*I *5024:A I *D sky130_fd_sc_hd__clkdlybuf4s25_1
*CAP
1 uio_in[0] 0.000802472
2 *5024:A 0.000802472
3 *5024:A *3965:C 0.000106634
4 *5024:A *5025:A 0.00110789
5 *5022:A *5024:A 0.000522359
*RES
1 uio_in[0] *5024:A 22.305 
*END

*D_NET *15 0.00261063
*CONN
*P uio_in[1] I
*I *5025:A I *D sky130_fd_sc_hd__clkdlybuf4s25_1
*CAP
1 uio_in[1] 0.000541287
2 *5025:A 0.000541287
3 *5025:A *3965:C 9.70988e-05
4 *5025:A *5028:A 0.000163199
5 *5025:A *736:6 0.000159867
6 *5022:A *5025:A 0
7 *5024:A *5025:A 0.00110789
*RES
1 uio_in[1] *5025:A 20.235 
*END

*D_NET *16 0.00142413
*CONN
*P uio_in[2] I
*I *5026:A I *D sky130_fd_sc_hd__clkdlybuf4s25_1
*CAP
1 uio_in[2] 0.000412945
2 *5026:A 0.000412945
3 *5026:A *5027:A 0.000551106
4 *5026:A *265:10 1.71013e-05
5 *5026:A *266:26 3.00381e-05
*RES
1 uio_in[2] *5026:A 14.61 
*END

*D_NET *17 0.00184178
*CONN
*P uio_in[3] I
*I *5027:A I *D sky130_fd_sc_hd__clkdlybuf4s25_1
*CAP
1 uio_in[3] 0.000561729
2 *5027:A 0.000561729
3 *5027:A *4482:A1 8.65905e-05
4 *5027:A *4486:A0 8.06286e-05
5 *5027:A *4773:A 0
6 *5027:A *265:10 0
7 *5026:A *5027:A 0.000551106
8 *5030:A *5027:A 0
*RES
1 uio_in[3] *5027:A 17.25 
*END

*D_NET *18 0.00192235
*CONN
*P uio_in[4] I
*I *5028:A I *D sky130_fd_sc_hd__clkdlybuf4s25_1
*CAP
1 uio_in[4] 0.000716688
2 *5028:A 0.000716688
3 *5028:A *3989:D 8.65961e-05
4 *5028:A *4027:D 0.000142604
5 *5028:A *265:6 4.82919e-05
6 *5028:A *736:6 4.82863e-05
7 *5025:A *5028:A 0.000163199
*RES
1 uio_in[4] *5028:A 17.715 
*END

*D_NET *22 0.001625
*CONN
*P uio_oe[0] O
*I *5073:LO O *D sky130_fd_sc_hd__conb_1
*CAP
1 uio_oe[0] 0.00053788
2 *5073:LO 0.00053788
3 uio_oe[0] uio_oe[4] 0.000549239
*RES
1 *5073:LO uio_oe[0] 5.72077 
*END

*D_NET *23 0.00105439
*CONN
*P uio_oe[1] O
*I *5074:LO O *D sky130_fd_sc_hd__conb_1
*CAP
1 uio_oe[1] 0.000314451
2 *5074:LO 0.000314451
3 uio_oe[1] uio_out[6] 0.000392507
4 *3:30 uio_oe[1] 3.29802e-05
*RES
1 *5074:LO uio_oe[1] 6.15643 
*END

*D_NET *24 0.00238032
*CONN
*P uio_oe[2] O
*I *5075:LO O *D sky130_fd_sc_hd__conb_1
*CAP
1 uio_oe[2] 0.000842258
2 *5075:LO 0.000842258
3 uio_oe[2] uio_out[1] 0.0006958
4 uio_oe[2] uio_out[4] 0
*RES
1 *5075:LO uio_oe[2] 6.8717 
*END

*D_NET *25 0.00192828
*CONN
*P uio_oe[3] O
*I *5076:LO O *D sky130_fd_sc_hd__conb_1
*CAP
1 uio_oe[3] 0.000329925
2 *5076:LO 0.000329925
3 uio_oe[3] uio_out[0] 0.000274093
4 uio_oe[3] uio_out[2] 0.000273899
5 uio_oe[3] uio_out[3] 0.000481136
6 uio_oe[3] uo_out[1] 2.05839e-06
7 uio_oe[3] *5065:A 0.000237238
*RES
1 *5076:LO uio_oe[3] 11.0516 
*END

*D_NET *26 0.00203564
*CONN
*P uio_oe[4] O
*I *5077:LO O *D sky130_fd_sc_hd__conb_1
*CAP
1 uio_oe[4] 0.000577545
2 *5077:LO 0.000577545
3 uio_oe[4] uio_out[0] 0.000331307
4 uio_oe[4] uio_out[2] 0
5 uio_oe[4] *5066:A 0
6 uio_oe[0] uio_oe[4] 0.000549239
*RES
1 *5077:LO uio_oe[4] 6.91557 
*END

*D_NET *27 0.00252147
*CONN
*P uio_oe[5] O
*I *5078:LO O *D sky130_fd_sc_hd__conb_1
*CAP
1 uio_oe[5] 0.000440835
2 *5078:LO 0.000440835
3 uio_oe[5] uio_out[4] 0.000662776
4 uio_oe[5] uio_out[5] 0.000665074
5 uio_oe[5] uio_out[7] 3.55252e-05
6 uio_oe[5] *4671:D 2.42236e-05
7 uio_oe[5] *4672:D 0.000150097
8 uio_oe[5] *4933:A 0.000102102
*RES
1 *5078:LO uio_oe[5] 7.83343 
*END

*D_NET *28 0.00249006
*CONN
*P uio_oe[6] O
*I *5079:LO O *D sky130_fd_sc_hd__conb_1
*CAP
1 uio_oe[6] 0.000819537
2 *5079:LO 0.000819537
3 uio_oe[6] uio_out[1] 0.000277992
4 uio_oe[6] uio_out[7] 0.000277798
5 uio_oe[6] uo_out[6] 0.000275092
6 uio_oe[6] *4471:A1 1.42674e-05
7 uio_oe[6] *4900:A 0
8 uio_oe[6] *721:23 5.83121e-06
9 *5029:A uio_oe[6] 0
*RES
1 *5079:LO uio_oe[6] 17.9366 
*END

*D_NET *29 0.000867646
*CONN
*P uio_oe[7] O
*I *5080:LO O *D sky130_fd_sc_hd__conb_1
*CAP
1 uio_oe[7] 0.000433823
2 *5080:LO 0.000433823
*RES
1 *5080:LO uio_oe[7] 8.34877 
*END

*D_NET *30 0.00220339
*CONN
*P uio_out[0] O
*I *5081:LO O *D sky130_fd_sc_hd__conb_1
*CAP
1 uio_out[0] 0.000600739
2 *5081:LO 0.000600739
3 uio_out[0] uio_out[2] 3.16997e-05
4 uio_out[0] uio_out[3] 0.00010425
5 uio_out[0] uo_out[0] 2.05641e-05
6 uio_out[0] uo_out[1] 4.82863e-05
7 uio_out[0] *5065:A 2.4997e-05
8 uio_out[0] *5066:A 0.000166715
9 uio_oe[3] uio_out[0] 0.000274093
10 uio_oe[4] uio_out[0] 0.000331307
*RES
1 *5081:LO uio_out[0] 12.7714 
*END

*D_NET *31 0.00199721
*CONN
*P uio_out[1] O
*I *5082:LO O *D sky130_fd_sc_hd__conb_1
*CAP
1 uio_out[1] 0.000382568
2 *5082:LO 0.000382568
3 uio_out[1] uio_out[5] 1.92979e-05
4 uio_out[1] uio_out[7] 0.000238981
5 uio_oe[2] uio_out[1] 0.0006958
6 uio_oe[6] uio_out[1] 0.000277992
*RES
1 *5082:LO uio_out[1] 6.1869 
*END

*D_NET *32 0.00139756
*CONN
*P uio_out[2] O
*I *5083:LO O *D sky130_fd_sc_hd__conb_1
*CAP
1 uio_out[2] 0.000377603
2 *5083:LO 0.000377603
3 uio_out[2] uio_out[3] 0.000317887
4 uio_out[2] *4467:A1 1.88656e-05
5 uio_out[2] *4884:A 0
6 uio_oe[3] uio_out[2] 0.000273899
7 uio_oe[4] uio_out[2] 0
8 uio_out[0] uio_out[2] 3.16997e-05
*RES
1 *5083:LO uio_out[2] 5.72077 
*END

*D_NET *33 0.00236965
*CONN
*P uio_out[3] O
*I *5084:LO O *D sky130_fd_sc_hd__conb_1
*CAP
1 uio_out[3] 0.000592956
2 *5084:LO 0.000592956
3 uio_out[3] uo_out[0] 0.00014673
4 uio_out[3] uo_out[1] 0.000133733
5 uio_oe[3] uio_out[3] 0.000481136
6 uio_out[0] uio_out[3] 0.00010425
7 uio_out[2] uio_out[3] 0.000317887
*RES
1 *5084:LO uio_out[3] 13.8081 
*END

*D_NET *34 0.00331059
*CONN
*P uio_out[4] O
*I *5085:LO O *D sky130_fd_sc_hd__conb_1
*CAP
1 uio_out[4] 0.000736448
2 *5085:LO 0.000736448
3 uio_out[4] uio_out[5] 0.000296273
4 uio_out[4] *4473:A1 0.000173754
5 uio_out[4] *4671:D 1.96981e-05
6 uio_out[4] *4734:A 0
7 uio_out[4] *4933:A 3.05446e-05
8 uio_out[4] *715:10 4.99619e-05
9 uio_out[4] *715:38 8.11114e-05
10 uio_out[4] *1126:12 6.08203e-05
11 uio_oe[2] uio_out[4] 0
12 uio_oe[5] uio_out[4] 0.000662776
13 *5029:A uio_out[4] 0.000462749
*RES
1 *5085:LO uio_out[4] 13.4954 
*END

*D_NET *35 0.00286523
*CONN
*P uio_out[5] O
*I *5086:LO O *D sky130_fd_sc_hd__conb_1
*CAP
1 uio_out[5] 0.000518953
2 *5086:LO 0.000518953
3 uio_out[5] uio_out[7] 0.000694089
4 uio_out[5] *4473:A1 3.64998e-06
5 uio_out[5] *4933:A 5.23288e-05
6 uio_out[5] *722:32 9.66106e-05
7 uio_oe[5] uio_out[5] 0.000665074
8 uio_out[1] uio_out[5] 1.92979e-05
9 uio_out[4] uio_out[5] 0.000296273
*RES
1 *5086:LO uio_out[5] 10.9286 
*END

*D_NET *36 0.00117798
*CONN
*P uio_out[6] O
*I *5087:LO O *D sky130_fd_sc_hd__conb_1
*CAP
1 uio_out[6] 0.000218914
2 *5087:LO 0.000218914
3 uio_oe[1] uio_out[6] 0.000392507
4 *3:30 uio_out[6] 0.000347649
*RES
1 *5087:LO uio_out[6] 7.00163 
*END

*D_NET *37 0.00206573
*CONN
*P uio_out[7] O
*I *5088:LO O *D sky130_fd_sc_hd__conb_1
*CAP
1 uio_out[7] 0.00040002
2 *5088:LO 0.00040002
3 uio_out[7] *4933:A 1.92979e-05
4 uio_oe[5] uio_out[7] 3.55252e-05
5 uio_oe[6] uio_out[7] 0.000277798
6 uio_out[1] uio_out[7] 0.000238981
7 uio_out[5] uio_out[7] 0.000694089
*RES
1 *5088:LO uio_out[7] 6.30343 
*END

*D_NET *38 0.00176422
*CONN
*P uo_out[0] O
*I *5065:X O *D sky130_fd_sc_hd__clkdlybuf4s25_1
*CAP
1 uo_out[0] 0.000505674
2 *5065:X 0.000505674
3 uo_out[0] uo_out[1] 7.69864e-05
4 uo_out[0] *5065:A 0.000120186
5 uo_out[0] *747:10 0.000315825
6 uo_out[0] *758:8 7.25779e-05
7 uio_out[0] uo_out[0] 2.05641e-05
8 uio_out[3] uo_out[0] 0.00014673
*RES
1 *5065:X uo_out[0] 11.3746 
*END

*D_NET *39 0.0016611
*CONN
*P uo_out[1] O
*I *5066:X O *D sky130_fd_sc_hd__clkdlybuf4s25_1
*CAP
1 uo_out[1] 0.000700017
2 *5066:X 0.000700017
3 uio_oe[3] uo_out[1] 2.05839e-06
4 uio_out[0] uo_out[1] 4.82863e-05
5 uio_out[3] uo_out[1] 0.000133733
6 uo_out[0] uo_out[1] 7.69864e-05
*RES
1 *5066:X uo_out[1] 14.347 
*END

*D_NET *40 0.00193862
*CONN
*P uo_out[2] O
*I *5067:X O *D sky130_fd_sc_hd__clkdlybuf4s25_1
*CAP
1 uo_out[2] 0.000495938
2 *5067:X 0.000495938
3 uo_out[2] uo_out[3] 0
4 uo_out[2] *4667:RESET_B 0.000584838
5 uo_out[2] *5067:A 0.000105849
6 uo_out[2] *719:14 1.7635e-05
7 uo_out[2] *769:8 0.000238427
*RES
1 *5067:X uo_out[2] 11.8846 
*END

*D_NET *41 0.00354264
*CONN
*P uo_out[3] O
*I *5068:X O *D sky130_fd_sc_hd__clkdlybuf4s25_1
*CAP
1 uo_out[3] 0.000917928
2 *5068:X 0.000917928
3 uo_out[3] uo_out[5] 0.000414698
4 uo_out[3] uo_out[6] 0.000328923
5 uo_out[3] *4735:A 0.00093589
6 uo_out[3] *4914:A 2.72764e-05
7 uo_out[2] uo_out[3] 0
*RES
1 *5068:X uo_out[3] 21.4564 
*END

*D_NET *42 0.00169034
*CONN
*P uo_out[4] O
*I *5069:X O *D sky130_fd_sc_hd__clkdlybuf4s25_1
*CAP
1 uo_out[4] 0.000791999
2 *5069:X 0.000791999
3 uo_out[4] uo_out[5] 0
4 uo_out[4] *721:100 0.000106344
*RES
1 *5069:X uo_out[4] 7.14863 
*END

*D_NET *43 0.00283823
*CONN
*P uo_out[5] O
*I *5070:X O *D sky130_fd_sc_hd__clkdlybuf4s25_1
*CAP
1 uo_out[5] 0.000506128
2 *5070:X 0.000506128
3 uo_out[5] uo_out[6] 0.00061281
4 uo_out[5] *4914:A 0.000633091
5 uo_out[5] *803:8 0.000165373
6 uo_out[3] uo_out[5] 0.000414698
7 uo_out[4] uo_out[5] 0
*RES
1 *5070:X uo_out[5] 15.9646 
*END

*D_NET *44 0.00270042
*CONN
*P uo_out[6] O
*I *5071:X O *D sky130_fd_sc_hd__clkdlybuf4s25_1
*CAP
1 uo_out[6] 0.000741797
2 *5071:X 0.000741797
3 uo_out[6] *4900:A 0
4 uo_out[6] *803:8 0
5 uio_oe[6] uo_out[6] 0.000275092
6 uo_out[3] uo_out[6] 0.000328923
7 uo_out[5] uo_out[6] 0.00061281
*RES
1 *5071:X uo_out[6] 18.1731 
*END

*D_NET *45 0.00252287
*CONN
*P uo_out[7] O
*I *5072:X O *D sky130_fd_sc_hd__clkdlybuf4s25_1
*CAP
1 uo_out[7] 0.000975461
2 *5072:X 0.000975461
3 uo_out[7] *4657:D 9.27255e-06
4 uo_out[7] *4930:A 5.30673e-05
5 uo_out[7] *5072:A 0.000509612
*RES
1 *5072:X uo_out[7] 20.73 
*END

*D_NET *46 0.00164096
*CONN
*I *4683:D I *D sky130_fd_sc_hd__dfrtp_2
*I *3974:X O *D sky130_fd_sc_hd__and2_2
*CAP
1 *4683:D 0.000420436
2 *3974:X 0.000420436
3 *4683:D *3974:A 0.000121437
4 *4683:D *3974:B 5.30673e-05
5 *4683:D *4618:CLK 0.000139933
6 *4683:D *4683:CLK 9.14049e-05
7 *4683:D *4683:RESET_B 0
8 *4683:D *627:133 0.000225182
9 *4683:D *711:89 0
10 *4683:D *1050:14 0.000169064
*RES
1 *3974:X *4683:D 15.435 
*END

*D_NET *47 0.00126908
*CONN
*I *4834:A I *D sky130_fd_sc_hd__dlygate4sd3_1
*I *3985:X O *D sky130_fd_sc_hd__o22a_2
*CAP
1 *4834:A 0.000515406
2 *3985:X 0.000515406
3 *4834:A *3969:A 6.54766e-05
4 *4834:A *3979:A 0.000116158
5 *4834:A *3985:A2 6.3124e-06
6 *4834:A *1050:22 5.03202e-05
*RES
1 *3985:X *4834:A 13.86 
*END

*D_NET *48 0.000426287
*CONN
*I *4678:D I *D sky130_fd_sc_hd__dfrtp_2
*I *3984:X O *D sky130_fd_sc_hd__a21bo_2
*CAP
1 *4678:D 0.000112648
2 *3984:X 0.000112648
3 *4678:D *3978:B1_N 0.000124895
4 *4678:D *3984:B1_N 0
5 *4678:D *4678:CLK 7.60965e-05
*RES
1 *3984:X *4678:D 9.72 
*END

*D_NET *49 0.000360801
*CONN
*I *4679:D I *D sky130_fd_sc_hd__dfrtp_2
*I *3982:X O *D sky130_fd_sc_hd__a21bo_2
*CAP
1 *4679:D 5.43703e-05
2 *3982:X 5.43703e-05
3 *4679:D *3982:A1 0.000201508
4 *4679:D *4679:CLK 5.05521e-05
*RES
1 *3982:X *4679:D 5.03 
*END

*D_NET *50 0.000245898
*CONN
*I *4680:D I *D sky130_fd_sc_hd__dfrtp_2
*I *3980:X O *D sky130_fd_sc_hd__a21bo_2
*CAP
1 *4680:D 6.52171e-05
2 *3980:X 6.52171e-05
3 *4680:D *3980:B1_N 0
4 *4680:D *4618:RESET_B 0.000115464
*RES
1 *3980:X *4680:D 8.58 
*END

*D_NET *51 0.00210261
*CONN
*I *4681:D I *D sky130_fd_sc_hd__dfrtp_2
*I *3978:X O *D sky130_fd_sc_hd__a21bo_2
*CAP
1 *4681:D 0.000515495
2 *3978:X 0.000515495
3 *4681:D *3978:A1 8.57024e-05
4 *4681:D *3978:B1_N 8.86824e-05
5 *4681:D *4681:RESET_B 9.08403e-05
6 *4681:D *4833:A 9.43504e-05
7 *4681:D *251:10 0.000463165
8 *4681:D *251:23 8.48576e-05
9 *4681:D *627:131 0.000164024
*RES
1 *3978:X *4681:D 15.965 
*END

*D_NET *52 0.000400624
*CONN
*I *4682:D I *D sky130_fd_sc_hd__dfrtp_2
*I *3976:X O *D sky130_fd_sc_hd__a21bo_2
*CAP
1 *4682:D 0.000153818
2 *3976:X 0.000153818
3 *4682:D *3980:A1 2.87867e-05
4 *4682:D *3980:A2 0
5 *4682:D *4466:S 0
6 *4682:D *251:58 6.42013e-05
*RES
1 *3976:X *4682:D 10.065 
*END

*D_NET *53 0.000640878
*CONN
*I *4488:D I *D sky130_fd_sc_hd__dfrtp_2
*I *3987:X O *D sky130_fd_sc_hd__mux2_1
*CAP
1 *4488:D 0.00020614
2 *3987:X 0.00020614
3 *4488:D *3987:S 3.23663e-05
4 *4488:D *4977:A 0.000196232
*RES
1 *3987:X *4488:D 10.5 
*END

*D_NET *54 0.000402399
*CONN
*I *4489:D I *D sky130_fd_sc_hd__dfrtp_2
*I *3988:X O *D sky130_fd_sc_hd__mux2_1
*CAP
1 *4489:D 0.00016219
2 *3988:X 0.00016219
3 *4489:D *3988:A0 0
4 *4489:D *3988:A1 7.35813e-05
5 *4489:D *4066:A0 4.43871e-06
6 *4489:D *4066:A1 0
*RES
1 *3988:X *4489:D 9.465 
*END

*D_NET *55 0.00152994
*CONN
*I *4490:D I *D sky130_fd_sc_hd__dfstp_2
*I *3991:X O *D sky130_fd_sc_hd__mux2_1
*CAP
1 *4490:D 0.000249431
2 *3991:X 0.000249431
3 *4490:D *4047:A1 0.000249921
4 *4490:D *4129:C 0.000228222
5 *4490:D *274:85 0.000467938
6 *4490:D *902:51 8.5002e-05
*RES
1 *3991:X *4490:D 14.145 
*END

*D_NET *56 0.0006108
*CONN
*I *4491:D I *D sky130_fd_sc_hd__dfrtp_2
*I *3992:X O *D sky130_fd_sc_hd__mux2_1
*CAP
1 *4491:D 0.000300766
2 *3992:X 0.000300766
3 *4491:D *3992:A0 0
4 *4491:D *4158:B1 0
5 *4491:D *5017:A 0
6 *4491:D *305:16 9.26907e-06
7 *4491:D *947:26 0
8 *4491:D *969:21 0
*RES
1 *3992:X *4491:D 11.505 
*END

*D_NET *57 0.000550129
*CONN
*I *4492:D I *D sky130_fd_sc_hd__dfrtp_2
*I *3993:X O *D sky130_fd_sc_hd__mux2_1
*CAP
1 *4492:D 0.000171091
2 *3993:X 0.000171091
3 *4492:D *3993:A1 1.51976e-05
4 *4492:D *4173:A2 9.47454e-05
5 *4492:D *4178:A3 9.30787e-05
6 *4492:D *688:8 4.9253e-06
*RES
1 *3993:X *4492:D 9.81 
*END

*D_NET *58 0.000518488
*CONN
*I *4493:D I *D sky130_fd_sc_hd__dfrtp_2
*I *3994:X O *D sky130_fd_sc_hd__mux2_1
*CAP
1 *4493:D 0.000141292
2 *3994:X 0.000141292
3 *4493:D *3994:A0 0.000162332
4 *4493:D *4330:A_N 0
5 *4493:D *621:37 7.35729e-05
*RES
1 *3994:X *4493:D 10.23 
*END

*D_NET *59 0.00120572
*CONN
*I *4494:D I *D sky130_fd_sc_hd__dfrtp_2
*I *3995:X O *D sky130_fd_sc_hd__mux2_1
*CAP
1 *4494:D 0.000286648
2 *3995:X 0.000286648
3 *4494:D *4280:C 9.14049e-05
4 *4494:D *4818:A 0.000346461
5 *4494:D *266:34 0
6 *4494:D *624:121 0.000122325
7 *4494:D *1018:101 7.22354e-05
*RES
1 *3995:X *4494:D 13.545 
*END

*D_NET *60 0.00131593
*CONN
*I *4495:D I *D sky130_fd_sc_hd__dfrtp_2
*I *3996:X O *D sky130_fd_sc_hd__mux2_1
*CAP
1 *4495:D 0.000475268
2 *3996:X 0.000475268
3 *4495:D *3994:S 7.45968e-05
4 *4495:D *4034:S 0.000216204
5 *4495:D *4281:A2 7.45968e-05
*RES
1 *3996:X *4495:D 14.64 
*END

*D_NET *61 0.000760631
*CONN
*I *4496:D I *D sky130_fd_sc_hd__dfrtp_2
*I *3997:X O *D sky130_fd_sc_hd__mux2_1
*CAP
1 *4496:D 0.000269291
2 *3997:X 0.000269291
3 *4496:D *4336:B2 0.000134756
4 *4496:D *272:76 6.93831e-05
5 *4496:D *1037:12 1.79098e-05
*RES
1 *3997:X *4496:D 11.955 
*END

*D_NET *62 0.000300804
*CONN
*I *4497:D I *D sky130_fd_sc_hd__dfrtp_2
*I *3998:X O *D sky130_fd_sc_hd__mux2_1
*CAP
1 *4497:D 8.13943e-05
2 *3998:X 8.13943e-05
3 *4497:D *3998:A1 0
4 *4497:D *4374:A 9.14049e-05
5 *4497:D *618:51 4.66108e-05
*RES
1 *3998:X *4497:D 8.775 
*END

*D_NET *63 0.000530709
*CONN
*I *4498:D I *D sky130_fd_sc_hd__dfrtp_2
*I *4000:X O *D sky130_fd_sc_hd__mux2_1
*CAP
1 *4498:D 0.000165314
2 *4000:X 0.000165314
3 *4498:D *4486:A0 0.000163204
4 *4498:D *4498:RESET_B 0
5 *4498:D *902:30 3.68769e-05
*RES
1 *4000:X *4498:D 9.81 
*END

*D_NET *64 0.000888521
*CONN
*I *4499:D I *D sky130_fd_sc_hd__dfstp_2
*I *4001:X O *D sky130_fd_sc_hd__mux2_1
*CAP
1 *4499:D 0.000287616
2 *4001:X 0.000287616
3 *4499:D *4155:A2 0.000159741
4 *4499:D *4499:SET_B 0
5 *4499:D *4869:A 0
6 *4499:D *947:10 0.000153547
*RES
1 *4001:X *4499:D 12.105 
*END

*D_NET *65 0.00063831
*CONN
*I *4500:D I *D sky130_fd_sc_hd__dfrtp_2
*I *4002:X O *D sky130_fd_sc_hd__mux2_1
*CAP
1 *4500:D 0.000163173
2 *4002:X 0.000163173
3 *4500:D *4002:A1 4.77807e-05
4 *4500:D *4178:A3 3.54721e-05
5 *4500:D *612:12 7.59867e-05
6 *4500:D *1045:53 0.000152724
*RES
1 *4002:X *4500:D 11.07 
*END

*D_NET *66 0.000455944
*CONN
*I *4501:D I *D sky130_fd_sc_hd__dfrtp_2
*I *4003:X O *D sky130_fd_sc_hd__mux2_1
*CAP
1 *4501:D 0.00014735
2 *4003:X 0.00014735
3 *4501:D *4285:A2 0.000120186
4 *4501:D *622:57 4.10576e-05
5 *4501:D *1006:59 0
*RES
1 *4003:X *4501:D 9.72 
*END

*D_NET *67 0.000372989
*CONN
*I *4502:D I *D sky130_fd_sc_hd__dfrtp_2
*I *4004:X O *D sky130_fd_sc_hd__mux2_1
*CAP
1 *4502:D 0.000140164
2 *4004:X 0.000140164
3 *4502:D *4231:B2 0
4 *4502:D *1017:32 2.14129e-05
5 *4502:D *1017:36 7.12477e-05
*RES
1 *4004:X *4502:D 9.465 
*END

*D_NET *68 0.000485275
*CONN
*I *4503:D I *D sky130_fd_sc_hd__dfrtp_2
*I *4005:X O *D sky130_fd_sc_hd__mux2_1
*CAP
1 *4503:D 0.000168498
2 *4005:X 0.000168498
3 *4503:D *4024:A1 0.000113416
4 *4503:D *4052:S 3.48638e-05
5 *4503:D *4519:RESET_B 0
*RES
1 *4005:X *4503:D 9.72 
*END

*D_NET *69 0.00100616
*CONN
*I *4504:D I *D sky130_fd_sc_hd__dfrtp_2
*I *4006:X O *D sky130_fd_sc_hd__mux2_1
*CAP
1 *4504:D 0.000359165
2 *4006:X 0.000359165
3 *4504:D *4331:A1 2.41231e-05
4 *4504:D *4331:B2 8.52972e-05
5 *4504:D *4504:CLK 4.18603e-06
6 *4504:D *985:68 0
7 *4504:D *1039:121 6.48605e-05
8 *4504:D *1039:130 0.000109367
*RES
1 *4006:X *4504:D 13.455 
*END

*D_NET *70 0.00125694
*CONN
*I *4505:D I *D sky130_fd_sc_hd__dfrtp_2
*I *4007:X O *D sky130_fd_sc_hd__mux2_1
*CAP
1 *4505:D 0.000334965
2 *4007:X 0.000334965
3 *4505:D *4054:A0 0.000114492
4 *4505:D *4054:A1 0
5 *4505:D *4521:CLK 2.20641e-05
6 *4505:D *4545:CLK 0.000112884
7 *4505:D *4545:D 1.95461e-05
8 *4505:D *4553:D 6.28765e-05
9 *4505:D *267:36 0.000163204
10 *4505:D *618:65 3.09364e-05
11 *4505:D *621:117 6.10014e-05
12 *4505:D *696:59 0
13 *4505:D *696:82 0
*RES
1 *4007:X *4505:D 13.89 
*END

*D_NET *71 0.000484985
*CONN
*I *4506:D I *D sky130_fd_sc_hd__dfstp_2
*I *4009:X O *D sky130_fd_sc_hd__mux2_1
*CAP
1 *4506:D 0.0001099
2 *4009:X 0.0001099
3 *4506:D *4009:A0 8.49205e-05
4 *4506:D *270:18 5.88411e-05
5 *4506:D *902:32 8.53113e-06
6 *4506:D *902:34 0.000112892
*RES
1 *4009:X *4506:D 9.375 
*END

*D_NET *72 0.000855952
*CONN
*I *4507:D I *D sky130_fd_sc_hd__dfstp_2
*I *4010:X O *D sky130_fd_sc_hd__mux2_1
*CAP
1 *4507:D 0.000191286
2 *4010:X 0.000191286
3 *4507:D *273:10 0.00011852
4 *4507:D *274:10 0.000120186
5 *4507:D *429:6 0.000234674
*RES
1 *4010:X *4507:D 10.755 
*END

*D_NET *73 0.00023291
*CONN
*I *4508:D I *D sky130_fd_sc_hd__dfrtp_2
*I *4011:X O *D sky130_fd_sc_hd__mux2_1
*CAP
1 *4508:D 8.42638e-05
2 *4011:X 8.42638e-05
3 *4508:D *4174:A1 0
4 *4508:D *4177:B1 3.68682e-05
5 *4508:D *619:86 2.75145e-05
*RES
1 *4011:X *4508:D 8.775 
*END

*D_NET *74 0.000551573
*CONN
*I *4509:D I *D sky130_fd_sc_hd__dfrtp_2
*I *4012:X O *D sky130_fd_sc_hd__mux2_1
*CAP
1 *4509:D 0.000194187
2 *4012:X 0.000194187
3 *4509:D *994:69 0.000163199
4 *4509:D *1006:12 0
*RES
1 *4012:X *4509:D 10.065 
*END

*D_NET *75 0.000391367
*CONN
*I *4510:D I *D sky130_fd_sc_hd__dfrtp_2
*I *4013:X O *D sky130_fd_sc_hd__mux2_1
*CAP
1 *4510:D 6.04007e-05
2 *4013:X 6.04007e-05
3 *4510:D *4052:S 0.000157186
4 *4510:D *4506:CLK 0
5 *4510:D *624:125 0.00011338
*RES
1 *4013:X *4510:D 9.09 
*END

*D_NET *76 0.000434143
*CONN
*I *4511:D I *D sky130_fd_sc_hd__dfrtp_2
*I *4014:X O *D sky130_fd_sc_hd__mux2_1
*CAP
1 *4511:D 0.000191796
2 *4014:X 0.000191796
3 *4511:D *4052:S 0
4 *4511:D *4703:A 0
5 *4511:D *1028:18 5.05521e-05
*RES
1 *4014:X *4511:D 9.885 
*END

*D_NET *77 0.00140901
*CONN
*I *4512:D I *D sky130_fd_sc_hd__dfrtp_2
*I *4015:X O *D sky130_fd_sc_hd__mux2_1
*CAP
1 *4512:D 0.000430614
2 *4015:X 0.000430614
3 *4512:D *4035:A1 7.23602e-05
4 *4512:D *4332:C 6.38291e-05
5 *4512:D *4835:A 8.53113e-06
6 *4512:D *619:92 0.000244992
7 *4512:D *1009:79 0.000158072
*RES
1 *4015:X *4512:D 13.3988 
*END

*D_NET *78 0.00100805
*CONN
*I *4513:D I *D sky130_fd_sc_hd__dfrtp_2
*I *4016:X O *D sky130_fd_sc_hd__mux2_1
*CAP
1 *4513:D 0.000325677
2 *4016:X 0.000325677
3 *4513:D *4036:A1 0.000133782
4 *4513:D *4529:CLK 3.56353e-05
5 *4513:D *4529:D 4.94404e-05
6 *4513:D *4913:A 7.11365e-05
7 *4513:D *272:149 0
8 *4513:D *619:12 5.72004e-05
9 *4513:D *696:18 9.50342e-06
10 *4513:D *696:22 0
11 *4513:D *696:33 0
*RES
1 *4016:X *4513:D 14.055 
*END

*D_NET *79 0.000443075
*CONN
*I *4514:D I *D sky130_fd_sc_hd__dfrtp_2
*I *4019:X O *D sky130_fd_sc_hd__mux2_1
*CAP
1 *4514:D 0.000207776
2 *4019:X 0.000207776
3 *4514:D *4019:A0 0
4 *4514:D *4136:A2 0
5 *4514:D *4514:RESET_B 2.75229e-05
6 *4514:D *4866:A 0
7 *4514:D *902:30 0
8 *4514:D *902:32 0
*RES
1 *4019:X *4514:D 10.305 
*END

*D_NET *80 0.000489413
*CONN
*I *4515:D I *D sky130_fd_sc_hd__dfrtp_2
*I *4020:X O *D sky130_fd_sc_hd__mux2_1
*CAP
1 *4515:D 0.000150465
2 *4020:X 0.000150465
3 *4515:D *4020:A0 5.22165e-05
4 *4515:D *4140:A2 1.88602e-05
5 *4515:D *270:131 0.000117407
*RES
1 *4020:X *4515:D 10.065 
*END

*D_NET *81 0.000311957
*CONN
*I *4516:D I *D sky130_fd_sc_hd__dfstp_2
*I *4021:X O *D sky130_fd_sc_hd__mux2_1
*CAP
1 *4516:D 9.82313e-05
2 *4021:X 9.82313e-05
3 *4516:D *4174:C1 3.86607e-05
4 *4516:D *4528:RESET_B 0
5 *4516:D *1009:79 4.99619e-05
6 *4516:D *1024:26 2.68721e-05
*RES
1 *4021:X *4516:D 9.03 
*END

*D_NET *82 0.000677541
*CONN
*I *4517:D I *D sky130_fd_sc_hd__dfrtp_2
*I *4022:X O *D sky130_fd_sc_hd__mux2_1
*CAP
1 *4517:D 0.000218476
2 *4022:X 0.000218476
3 *4517:D *4041:A0 3.86607e-05
4 *4517:D *4485:A1 1.70935e-05
5 *4517:D *4689:CLK 8.82557e-05
6 *4517:D *4689:RESET_B 4.82919e-05
7 *4517:D *1006:86 4.82863e-05
*RES
1 *4022:X *4517:D 10.605 
*END

*D_NET *83 0.00134825
*CONN
*I *4518:D I *D sky130_fd_sc_hd__dfrtp_2
*I *4023:X O *D sky130_fd_sc_hd__mux2_1
*CAP
1 *4518:D 0.000356557
2 *4023:X 0.000356557
3 *4518:D *4052:S 0.000461047
4 *4518:D *4518:CLK 6.06689e-05
5 *4518:D *4818:A 0.000113416
*RES
1 *4023:X *4518:D 12.825 
*END

*D_NET *84 0.00033566
*CONN
*I *4519:D I *D sky130_fd_sc_hd__dfrtp_2
*I *4024:X O *D sky130_fd_sc_hd__mux2_1
*CAP
1 *4519:D 0.000144332
2 *4024:X 0.000144332
3 *4519:D *4024:A1 0
4 *4519:D *4052:A1 0
5 *4519:D *4519:CLK 7.00889e-06
6 *4519:D *624:18 3.99879e-05
*RES
1 *4024:X *4519:D 9.465 
*END

*D_NET *85 0.000419618
*CONN
*I *4520:D I *D sky130_fd_sc_hd__dfrtp_2
*I *4025:X O *D sky130_fd_sc_hd__mux2_1
*CAP
1 *4520:D 9.4597e-05
2 *4025:X 9.4597e-05
3 *4520:D *4202:A1 9.40874e-05
4 *4520:D *4504:CLK 5.23093e-05
5 *4520:D *985:66 8.40269e-05
*RES
1 *4025:X *4520:D 9.12 
*END

*D_NET *86 0.000541052
*CONN
*I *4521:D I *D sky130_fd_sc_hd__dfrtp_2
*I *4026:X O *D sky130_fd_sc_hd__mux2_1
*CAP
1 *4521:D 0.000163266
2 *4026:X 0.000163266
3 *4521:D *4369:A2 5.13155e-05
4 *4521:D *891:26 0.000163204
*RES
1 *4026:X *4521:D 9.81 
*END

*D_NET *87 0.000836325
*CONN
*I *4522:D I *D sky130_fd_sc_hd__dfstp_2
*I *4029:X O *D sky130_fd_sc_hd__mux2_1
*CAP
1 *4522:D 0.000252572
2 *4029:X 0.000252572
3 *4522:D *4140:A1 0
4 *4522:D *4506:SET_B 0.000117825
5 *4522:D *4522:SET_B 0
6 *4522:D *268:32 9.42896e-05
7 *4522:D *1048:50 0.000119066
*RES
1 *4029:X *4522:D 11.1 
*END

*D_NET *88 0.000480453
*CONN
*I *4523:D I *D sky130_fd_sc_hd__dfrtp_2
*I *4030:X O *D sky130_fd_sc_hd__mux2_1
*CAP
1 *4523:D 0.000136797
2 *4030:X 0.000136797
3 *4523:D *4030:S 1.90762e-05
4 *4523:D *4155:A1 4.82863e-05
5 *4523:D *4507:SET_B 9.17261e-05
6 *4523:D *4704:A 4.77701e-05
*RES
1 *4030:X *4523:D 9.465 
*END

*D_NET *89 0.000683709
*CONN
*I *4524:D I *D sky130_fd_sc_hd__dfstp_2
*I *4031:X O *D sky130_fd_sc_hd__mux2_1
*CAP
1 *4524:D 0.00021921
2 *4031:X 0.00021921
3 *4524:D *4031:A1 8.8266e-05
4 *4524:D *4548:CLK 4.92096e-05
5 *4524:D *274:50 0
6 *4524:D *274:74 0
7 *4524:D *275:36 0.000107813
*RES
1 *4031:X *4524:D 11.415 
*END

*D_NET *90 0.000344822
*CONN
*I *4525:D I *D sky130_fd_sc_hd__dfrtp_2
*I *4032:X O *D sky130_fd_sc_hd__mux2_1
*CAP
1 *4525:D 0.000133494
2 *4032:X 0.000133494
3 *4525:D *3987:A1 6.74079e-05
4 *4525:D *1006:12 0
5 *4525:D *1006:22 1.04258e-05
*RES
1 *4032:X *4525:D 9.375 
*END

*D_NET *91 0.00125872
*CONN
*I *4526:D I *D sky130_fd_sc_hd__dfrtp_2
*I *4033:X O *D sky130_fd_sc_hd__mux2_1
*CAP
1 *4526:D 0.000380971
2 *4033:X 0.000380971
3 *4526:D *4033:A1 0.000295663
4 *4526:D *4526:RESET_B 2.91561e-06
5 *4526:D *622:53 0.000198205
6 *4526:D *958:109 0
*RES
1 *4033:X *4526:D 15.21 
*END

*D_NET *92 0.000570634
*CONN
*I *4527:D I *D sky130_fd_sc_hd__dfrtp_2
*I *4034:X O *D sky130_fd_sc_hd__mux2_1
*CAP
1 *4527:D 8.26788e-05
2 *4034:X 8.26788e-05
3 *4527:D *4495:CLK 9.30787e-05
4 *4527:D *4702:A 3.09164e-05
5 *4527:D *4703:A 7.23602e-05
6 *4527:D *612:83 0.000160635
7 *4527:D *623:142 4.82863e-05
*RES
1 *4034:X *4527:D 9.81 
*END

*D_NET *93 0.000833138
*CONN
*I *4528:D I *D sky130_fd_sc_hd__dfrtp_2
*I *4035:X O *D sky130_fd_sc_hd__mux2_1
*CAP
1 *4528:D 0.000339559
2 *4035:X 0.000339559
3 *4528:D *4025:A1 3.20961e-05
4 *4528:D *4035:A0 0
5 *4528:D *4520:RESET_B 0.000114789
6 *4528:D *272:76 5.05066e-06
7 *4528:D *619:100 0
8 *4528:D *1039:26 2.0851e-06
*RES
1 *4035:X *4528:D 13.14 
*END

*D_NET *94 0.000378131
*CONN
*I *4529:D I *D sky130_fd_sc_hd__dfrtp_2
*I *4036:X O *D sky130_fd_sc_hd__mux2_1
*CAP
1 *4529:D 0.00010053
2 *4036:X 0.00010053
3 *4529:D *4036:S 3.45588e-05
4 *4529:D *4529:CLK 9.30717e-05
5 *4513:D *4529:D 4.94404e-05
*RES
1 *4036:X *4529:D 9.12 
*END

*D_NET *95 0.00113195
*CONN
*I *4530:D I *D sky130_fd_sc_hd__dfrtp_2
*I *4038:X O *D sky130_fd_sc_hd__mux2_1
*CAP
1 *4530:D 0.000383993
2 *4038:X 0.000383993
3 *4530:D *4038:A0 1.83847e-05
4 *4530:D *4538:D 0
5 *4530:D *429:6 7.49434e-05
6 *4530:D *1009:34 0.000270633
*RES
1 *4038:X *4530:D 13.23 
*END

*D_NET *96 0.000401001
*CONN
*I *4531:D I *D sky130_fd_sc_hd__dfstp_2
*I *4039:X O *D sky130_fd_sc_hd__mux2_1
*CAP
1 *4531:D 0.000125278
2 *4039:X 0.000125278
3 *4531:D *4057:S 8.49205e-05
4 *4531:D *4539:D 6.5525e-05
5 *4531:D *4546:CLK 0
*RES
1 *4039:X *4531:D 9.375 
*END

*D_NET *97 0.000435953
*CONN
*I *4532:D I *D sky130_fd_sc_hd__dfstp_2
*I *4040:X O *D sky130_fd_sc_hd__mux2_1
*CAP
1 *4532:D 0.000175326
2 *4040:X 0.000175326
3 *4532:D *619:142 0
4 *4532:D *1024:26 0
5 *4532:D *1024:76 8.53011e-05
6 *4532:D *1043:20 0
*RES
1 *4040:X *4532:D 9.63 
*END

*D_NET *98 0.000396553
*CONN
*I *4533:D I *D sky130_fd_sc_hd__dfrtp_2
*I *4041:X O *D sky130_fd_sc_hd__mux2_1
*CAP
1 *4533:D 9.58113e-05
2 *4041:X 9.58113e-05
3 *4533:D *4517:CLK 4.91189e-05
4 *4533:D *4689:CLK 3.72916e-05
5 *4533:D *994:50 0.00011852
*RES
1 *4041:X *4533:D 9.375 
*END

*D_NET *99 0.000650467
*CONN
*I *4534:D I *D sky130_fd_sc_hd__dfrtp_2
*I *4042:X O *D sky130_fd_sc_hd__mux2_1
*CAP
1 *4534:D 0.000202083
2 *4042:X 0.000202083
3 *4534:D *4534:CLK 5.83121e-06
4 *4534:D *4952:A 4.4073e-05
5 *4534:D *273:38 0.0001249
6 *4534:D *622:16 1.91597e-05
7 *4534:D *622:27 5.23362e-05
8 *4534:D *1017:32 0
*RES
1 *4042:X *4534:D 10.68 
*END

*D_NET *100 0.00025197
*CONN
*I *4535:D I *D sky130_fd_sc_hd__dfrtp_2
*I *4043:X O *D sky130_fd_sc_hd__mux2_1
*CAP
1 *4535:D 0.000108368
2 *4043:X 0.000108368
3 *4535:D *4043:S 0
4 *4535:D *4214:A2 0
5 *4535:D *4535:CLK 8.53113e-06
6 *4535:D *1028:77 2.67022e-05
*RES
1 *4043:X *4535:D 8.775 
*END

*D_NET *101 0.000515372
*CONN
*I *4536:D I *D sky130_fd_sc_hd__dfrtp_2
*I *4044:X O *D sky130_fd_sc_hd__mux2_1
*CAP
1 *4536:D 0.000182143
2 *4044:X 0.000182143
3 *4536:D *4268:A2 9.51579e-05
4 *4536:D *4544:RESET_B 1.0397e-05
5 *4536:D *985:99 8.33066e-06
6 *4536:D *1037:61 3.72007e-05
*RES
1 *4044:X *4536:D 9.81 
*END

*D_NET *102 0.000346151
*CONN
*I *4537:D I *D sky130_fd_sc_hd__dfrtp_2
*I *4045:X O *D sky130_fd_sc_hd__mux2_1
*CAP
1 *4537:D 0.000148606
2 *4045:X 0.000148606
3 *4537:D *847:22 4.89395e-05
*RES
1 *4045:X *4537:D 9.375 
*END

*D_NET *103 0.00102695
*CONN
*I *4538:D I *D sky130_fd_sc_hd__dfstp_2
*I *4047:X O *D sky130_fd_sc_hd__mux2_1
*CAP
1 *4538:D 0.00047514
2 *4047:X 0.00047514
3 *4538:D *4530:CLK 6.44051e-05
4 *4538:D *612:83 0
5 *4538:D *622:10 1.22676e-05
6 *4538:D *1009:34 0
7 *4530:D *4538:D 0
*RES
1 *4047:X *4538:D 13.74 
*END

*D_NET *104 0.00128646
*CONN
*I *4539:D I *D sky130_fd_sc_hd__dfstp_2
*I *4048:X O *D sky130_fd_sc_hd__mux2_1
*CAP
1 *4539:D 0.000585194
2 *4048:X 0.000585194
3 *4539:D *3991:S 5.05521e-05
4 *4539:D *4539:CLK 0
5 *4539:D *4546:CLK 0
6 *4539:D *267:30 0
7 *4539:D *274:22 0
8 *4539:D *275:12 0
9 *4539:D *622:120 0
10 *4539:D *622:142 0
11 *4531:D *4539:D 6.5525e-05
*RES
1 *4048:X *4539:D 16.29 
*END

*D_NET *105 0.0016887
*CONN
*I *4540:D I *D sky130_fd_sc_hd__dfstp_2
*I *4049:X O *D sky130_fd_sc_hd__mux2_1
*CAP
1 *4540:D 0.000545885
2 *4049:X 0.000545885
3 *4540:D *274:50 0
4 *4540:D *274:74 0
5 *4540:D *621:80 0.000167593
6 *4540:D *621:93 7.25441e-05
7 *4540:D *1024:24 0.000356788
*RES
1 *4049:X *4540:D 17.04 
*END

*D_NET *106 0.000409233
*CONN
*I *4541:D I *D sky130_fd_sc_hd__dfrtp_2
*I *4050:X O *D sky130_fd_sc_hd__mux2_1
*CAP
1 *4541:D 9.42638e-05
2 *4050:X 9.42638e-05
3 *4541:D *4050:S 5.30673e-05
4 *4541:D *1008:19 0.00011852
5 *4541:D *1043:59 4.91189e-05
*RES
1 *4050:X *4541:D 9.375 
*END

*D_NET *107 0.000732076
*CONN
*I *4542:D I *D sky130_fd_sc_hd__dfrtp_2
*I *4051:X O *D sky130_fd_sc_hd__mux2_1
*CAP
1 *4542:D 0.000279363
2 *4051:X 0.000279363
3 *4542:D *4034:S 0.000127315
4 *4542:D *4052:S 2.49909e-05
5 *4542:D *4237:A3 2.10433e-05
6 *4542:D *1017:22 0
7 *4542:D *1040:18 0
*RES
1 *4051:X *4542:D 11.1 
*END

*D_NET *108 0.000366959
*CONN
*I *4543:D I *D sky130_fd_sc_hd__dfrtp_2
*I *4052:X O *D sky130_fd_sc_hd__mux2_1
*CAP
1 *4543:D 0.000118337
2 *4052:X 0.000118337
3 *4543:D *4282:A2 7.06865e-05
4 *4543:D *4543:CLK 1.01661e-05
5 *4543:D *1028:77 4.94326e-05
*RES
1 *4052:X *4543:D 9.12 
*END

*D_NET *109 0.000490141
*CONN
*I *4544:D I *D sky130_fd_sc_hd__dfrtp_2
*I *4053:X O *D sky130_fd_sc_hd__mux2_1
*CAP
1 *4544:D 0.000154436
2 *4053:X 0.000154436
3 *4544:D *4330:B 6.97202e-05
4 *4544:D *958:74 8.48458e-05
5 *4544:D *1015:32 2.37321e-05
6 *4544:D *1015:40 2.97004e-06
*RES
1 *4053:X *4544:D 9.60375 
*END

*D_NET *110 0.000440477
*CONN
*I *4545:D I *D sky130_fd_sc_hd__dfrtp_2
*I *4054:X O *D sky130_fd_sc_hd__mux2_1
*CAP
1 *4545:D 9.281e-05
2 *4054:X 9.281e-05
3 *4545:D *4054:A0 4.43871e-06
4 *4545:D *4054:A1 0.000159252
5 *4545:D *4545:CLK 5.0512e-05
6 *4545:D *621:106 2.11084e-05
7 *4505:D *4545:D 1.95461e-05
*RES
1 *4054:X *4545:D 9.54 
*END

*D_NET *111 0.000632683
*CONN
*I *4546:D I *D sky130_fd_sc_hd__dfrtp_2
*I *4056:X O *D sky130_fd_sc_hd__mux2_1
*CAP
1 *4546:D 0.000185346
2 *4056:X 0.000185346
3 *4546:D *3991:A0 5.04256e-05
4 *4546:D *3991:S 0.000158072
5 *4546:D *4141:B2 0
6 *4546:D *4939:A 3.67779e-05
7 *4546:D *275:30 9.50342e-06
8 *4546:D *1048:58 7.21296e-06
*RES
1 *4056:X *4546:D 10.32 
*END

*D_NET *112 0.000898527
*CONN
*I *4547:D I *D sky130_fd_sc_hd__dfrtp_2
*I *4057:X O *D sky130_fd_sc_hd__mux2_1
*CAP
1 *4547:D 0.000138523
2 *4057:X 0.000138523
3 *4547:D *4057:S 8.40269e-05
4 *4547:D *268:87 0.00026789
5 *4547:D *273:86 0.000269564
*RES
1 *4057:X *4547:D 11.16 
*END

*D_NET *113 0.000390401
*CONN
*I *4548:D I *D sky130_fd_sc_hd__dfrtp_2
*I *4058:X O *D sky130_fd_sc_hd__mux2_1
*CAP
1 *4548:D 0.000122901
2 *4058:X 0.000122901
3 *4548:D *274:50 1.22505e-05
4 *4548:D *275:36 0
5 *4548:D *275:81 8.8266e-05
6 *4548:D *1024:24 4.40812e-05
*RES
1 *4058:X *4548:D 9.375 
*END

*D_NET *114 0.000595308
*CONN
*I *4549:D I *D sky130_fd_sc_hd__dfstp_2
*I *4059:X O *D sky130_fd_sc_hd__mux2_1
*CAP
1 *4549:D 0.000171552
2 *4059:X 0.000171552
3 *4549:D *4006:S 5.39961e-05
4 *4549:D *4331:B1 0
5 *4549:D *267:62 3.50033e-05
6 *4549:D *276:23 0.000163204
7 *4549:D *987:118 0
*RES
1 *4059:X *4549:D 10.065 
*END

*D_NET *115 0.00123125
*CONN
*I *4550:D I *D sky130_fd_sc_hd__dfrtp_2
*I *4060:X O *D sky130_fd_sc_hd__mux2_1
*CAP
1 *4550:D 0.000499856
2 *4060:X 0.000499856
3 *4550:D *4237:B2 2.24336e-05
4 *4550:D *4526:RESET_B 0.000114789
5 *4550:D *4947:A 2.87867e-05
6 *4550:D *272:57 6.55328e-05
*RES
1 *4060:X *4550:D 15.24 
*END

*D_NET *116 0.000601279
*CONN
*I *4551:D I *D sky130_fd_sc_hd__dfrtp_2
*I *4061:X O *D sky130_fd_sc_hd__mux2_1
*CAP
1 *4551:D 0.00019905
2 *4061:X 0.00019905
3 *4551:D *4061:A0 0.000203178
4 *4551:D *4501:RESET_B 0
5 *4551:D *4764:A 0
*RES
1 *4061:X *4551:D 10.155 
*END

*D_NET *117 0.000373382
*CONN
*I *4552:D I *D sky130_fd_sc_hd__dfrtp_2
*I *4062:X O *D sky130_fd_sc_hd__mux2_1
*CAP
1 *4552:D 0.000168691
2 *4062:X 0.000168691
3 *4552:D *272:68 0
4 *4552:D *621:37 3.59997e-05
*RES
1 *4062:X *4552:D 9.465 
*END

*D_NET *118 0.000854824
*CONN
*I *4553:D I *D sky130_fd_sc_hd__dfrtp_2
*I *4063:X O *D sky130_fd_sc_hd__mux2_1
*CAP
1 *4553:D 0.00028304
2 *4063:X 0.00028304
3 *4553:D *4063:A0 2.69217e-05
4 *4553:D *4063:S 0.000198945
5 *4553:D *4537:CLK 0
6 *4553:D *618:65 0
7 *4553:D *696:59 0
8 *4505:D *4553:D 6.28765e-05
*RES
1 *4063:X *4553:D 12.45 
*END

*D_NET *119 0.000430728
*CONN
*I *4554:D I *D sky130_fd_sc_hd__dfrtp_2
*I *4064:X O *D sky130_fd_sc_hd__mux2_1
*CAP
1 *4554:D 0.000159408
2 *4064:X 0.000159408
3 *4554:D *4684:RESET_B 4.82919e-05
4 *4554:D *984:16 2.45812e-05
5 *3:30 *4554:D 3.9039e-05
*RES
1 *4064:X *4554:D 9.675 
*END

*D_NET *120 0.000266419
*CONN
*I *4555:D I *D sky130_fd_sc_hd__dfrtp_2
*I *4065:X O *D sky130_fd_sc_hd__mux2_1
*CAP
1 *4555:D 0.000107569
2 *4065:X 0.000107569
3 *4555:D *4065:A0 0
4 *4555:D *4065:A1 4.82863e-05
5 *4555:D *4555:RESET_B 2.99518e-06
6 *4555:D *1000:22 0
*RES
1 *4065:X *4555:D 8.775 
*END

*D_NET *121 0.00068527
*CONN
*I *4556:D I *D sky130_fd_sc_hd__dfrtp_2
*I *4066:X O *D sky130_fd_sc_hd__mux2_1
*CAP
1 *4556:D 0.000215611
2 *4066:X 0.000215611
3 *4556:D *4066:A0 0
4 *4556:D *653:10 0.000116853
5 *4556:D *985:34 4.40889e-05
6 *4556:D *1046:20 9.31061e-05
*RES
1 *4066:X *4556:D 11.445 
*END

*D_NET *122 0.000669388
*CONN
*I *4557:D I *D sky130_fd_sc_hd__dfrtp_2
*I *4067:X O *D sky130_fd_sc_hd__mux2_1
*CAP
1 *4557:D 0.000298518
2 *4067:X 0.000298518
3 *4557:D *4067:A0 0
4 *4557:D *4687:CLK 0
5 *4557:D *4687:D 7.23533e-05
6 *4557:D *4687:RESET_B 0
*RES
1 *4067:X *4557:D 12.105 
*END

*D_NET *123 0.000770237
*CONN
*I *4558:D I *D sky130_fd_sc_hd__dfrtp_2
*I *4068:X O *D sky130_fd_sc_hd__mux2_1
*CAP
1 *4558:D 0.00027143
2 *4068:X 0.00027143
3 *4558:D *4065:A0 0.00013611
4 *4558:D *4555:RESET_B 0
5 *4558:D *4558:RESET_B 9.12662e-05
6 *4558:D *999:10 0
7 *4558:D *999:16 0
*RES
1 *4068:X *4558:D 12.45 
*END

*D_NET *124 0.00126813
*CONN
*I *4799:A I *D sky130_fd_sc_hd__dlygate4sd3_1
*I *4069:X O *D sky130_fd_sc_hd__mux2_1
*CAP
1 *4799:A 0.000347226
2 *4069:X 0.000347226
3 *4799:A *4069:S 7.60965e-05
4 *4799:A *4487:S 0.000131791
5 *4799:A *4613:RESET_B 6.73578e-05
6 *4799:A *360:16 0.000298435
*RES
1 *4069:X *4799:A 13.83 
*END

*D_NET *125 0.00074303
*CONN
*I *4560:D I *D sky130_fd_sc_hd__dfrtp_2
*I *4070:X O *D sky130_fd_sc_hd__mux2_1
*CAP
1 *4560:D 0.000156765
2 *4070:X 0.000156765
3 *4560:D *4583:D 0
4 *4560:D *1031:14 9.30717e-05
5 *4560:D *1031:18 0.000205428
6 *4560:D *1062:12 0.000131
*RES
1 *4070:X *4560:D 11.07 
*END

*D_NET *126 0.000402141
*CONN
*I *4561:D I *D sky130_fd_sc_hd__dfrtp_2
*I *4071:X O *D sky130_fd_sc_hd__mux2_1
*CAP
1 *4561:D 0.000150816
2 *4071:X 0.000150816
3 *4561:D *4071:A1 5.34747e-05
4 *4561:D *4071:S 4.70343e-05
5 *4561:D *4846:A 0
*RES
1 *4071:X *4561:D 9.72 
*END

*D_NET *127 0.000229454
*CONN
*I *4562:D I *D sky130_fd_sc_hd__dfrtp_2
*I *4072:X O *D sky130_fd_sc_hd__mux2_1
*CAP
1 *4562:D 8.94431e-05
2 *4072:X 8.94431e-05
3 *4562:D *4685:RESET_B 0
4 *4562:D *982:77 6.07498e-06
5 *3:30 *4562:D 4.44929e-05
*RES
1 *4072:X *4562:D 8.56875 
*END

*D_NET *128 0.00148995
*CONN
*I *4805:A I *D sky130_fd_sc_hd__dlygate4sd3_1
*I *4073:X O *D sky130_fd_sc_hd__mux2_1
*CAP
1 *4805:A 0.000540366
2 *4073:X 0.000540366
3 *4805:A *4073:A1 0
4 *4805:A *4097:A0 0
5 *4805:A *4097:A1 7.35813e-05
6 *4805:A *4563:D 9.33998e-05
7 *4805:A *4590:RESET_B 7.65356e-05
8 *4805:A *271:6 0.000165698
9 *4805:A *1003:16 0
10 *4805:A *1089:8 0
*RES
1 *4073:X *4805:A 17.475 
*END

*D_NET *129 0.00140623
*CONN
*I *4564:D I *D sky130_fd_sc_hd__dfrtp_2
*I *4074:X O *D sky130_fd_sc_hd__mux2_1
*CAP
1 *4564:D 0.000359471
2 *4074:X 0.000359471
3 *4564:D *4185:A1 4.09096e-05
4 *4564:D *4561:RESET_B 0.000124895
5 *4564:D *4572:D 0.000184703
6 *4564:D *4588:CLK 2.4997e-05
7 *4564:D *4917:A 0
8 *4564:D *997:12 0.000311778
*RES
1 *4074:X *4564:D 15.585 
*END

*D_NET *130 0.00111963
*CONN
*I *4565:D I *D sky130_fd_sc_hd__dfrtp_2
*I *4075:X O *D sky130_fd_sc_hd__mux2_1
*CAP
1 *4565:D 0.000428316
2 *4075:X 0.000428316
3 *4565:D *4075:A1 0
4 *4565:D *4565:CLK 2.75145e-05
5 *4565:D *4565:RESET_B 0
6 *4565:D *4573:D 9.30717e-05
7 *4565:D *623:58 0.000113752
8 *4565:D *623:60 2.86623e-05
*RES
1 *4075:X *4565:D 14.1 
*END

*D_NET *131 0.00079195
*CONN
*I *4795:A I *D sky130_fd_sc_hd__dlygate4sd3_1
*I *4076:X O *D sky130_fd_sc_hd__mux2_1
*CAP
1 *4795:A 0.000336715
2 *4076:X 0.000336715
3 *4795:A *999:16 0.00011852
*RES
1 *4076:X *4795:A 11.445 
*END

*D_NET *132 0.000435345
*CONN
*I *4923:A I *D sky130_fd_sc_hd__dlygate4sd3_1
*I *4077:X O *D sky130_fd_sc_hd__mux2_1
*CAP
1 *4923:A 0.000162318
2 *4077:X 0.000162318
3 *4923:A *990:55 0.000110709
*RES
1 *4077:X *4923:A 6.08 
*END

*D_NET *133 0.000574085
*CONN
*I *4851:A I *D sky130_fd_sc_hd__dlygate4sd3_1
*I *4078:X O *D sky130_fd_sc_hd__mux2_1
*CAP
1 *4851:A 0.000188548
2 *4078:X 0.000188548
3 *4851:A *4078:A1 0.000114643
4 *4851:A *990:38 8.23457e-05
*RES
1 *4078:X *4851:A 10.065 
*END

*D_NET *134 0.00128285
*CONN
*I *4797:A I *D sky130_fd_sc_hd__dlygate4sd3_1
*I *4079:X O *D sky130_fd_sc_hd__mux2_1
*CAP
1 *4797:A 0.000300183
2 *4079:X 0.000300183
3 *4797:A *4071:A0 0.00016569
4 *4797:A *4071:S 0.000150019
5 *4797:A *4079:A1 0
6 *4797:A *4569:D 0.000277029
7 *4797:A *997:24 1.73877e-05
8 *4797:A *1071:12 7.23602e-05
*RES
1 *4079:X *4797:A 15.18 
*END

*D_NET *135 0.000135627
*CONN
*I *4791:A I *D sky130_fd_sc_hd__dlygate4sd3_1
*I *4080:X O *D sky130_fd_sc_hd__mux2_1
*CAP
1 *4791:A 2.78134e-05
2 *4080:X 2.78134e-05
3 *4791:A *1013:40 4.99619e-05
4 *4791:A *1029:90 3.00381e-05
*RES
1 *4080:X *4791:A 4.01 
*END

*D_NET *136 0.000896744
*CONN
*I *4935:A I *D sky130_fd_sc_hd__dlygate4sd3_1
*I *4081:X O *D sky130_fd_sc_hd__mux2_1
*CAP
1 *4935:A 0.000384696
2 *4081:X 0.000384696
3 *4935:A *4081:A0 0
4 *4935:A *4476:A 9.54399e-05
5 *4935:A *4571:D 0
6 *4935:A *248:68 0
7 *4935:A *627:20 0
8 *4935:A *1005:16 3.19126e-05
9 *4935:A *1027:12 0
*RES
1 *4081:X *4935:A 12.795 
*END

*D_NET *137 0.000543273
*CONN
*I *4572:D I *D sky130_fd_sc_hd__dfrtp_2
*I *4082:X O *D sky130_fd_sc_hd__mux2_1
*CAP
1 *4572:D 7.50493e-05
2 *4082:X 7.50493e-05
3 *4572:D *4588:CLK 0.000161861
4 *4572:D *4909:A 4.66108e-05
5 *4572:D *4917:A 0
6 *4564:D *4572:D 0.000184703
*RES
1 *4082:X *4572:D 9.795 
*END

*D_NET *138 0.000170289
*CONN
*I *4970:A I *D sky130_fd_sc_hd__dlygate4sd3_1
*I *4083:X O *D sky130_fd_sc_hd__mux2_1
*CAP
1 *4970:A 8.51447e-05
2 *4083:X 8.51447e-05
3 *4970:A *4581:CLK 0
4 *4970:A *1034:65 0
*RES
1 *4083:X *4970:A 8.58 
*END

*D_NET *139 0.000494337
*CONN
*I *4574:D I *D sky130_fd_sc_hd__dfrtp_2
*I *4084:X O *D sky130_fd_sc_hd__mux2_1
*CAP
1 *4574:D 0.000200125
2 *4084:X 0.000200125
3 *4574:D *4065:A0 9.4087e-05
4 *4574:D *4068:A0 0
5 *4574:D *999:16 0
*RES
1 *4084:X *4574:D 10.065 
*END

*D_NET *140 0.00150343
*CONN
*I *4999:A I *D sky130_fd_sc_hd__dlygate4sd3_1
*I *4085:X O *D sky130_fd_sc_hd__mux2_1
*CAP
1 *4999:A 0.000611348
2 *4085:X 0.000611348
3 *4999:A *4085:A0 4.9253e-06
4 *4999:A *4093:A0 1.52352e-05
5 *4999:A *4093:A1 0.000137776
6 *4999:A *4093:S 8.64421e-05
7 *4999:A *990:85 3.6355e-05
*RES
1 *4085:X *4999:A 16.14 
*END

*D_NET *141 0.000106447
*CONN
*I *4990:A I *D sky130_fd_sc_hd__dlygate4sd3_1
*I *4086:X O *D sky130_fd_sc_hd__mux2_1
*CAP
1 *4990:A 5.32236e-05
2 *4086:X 5.32236e-05
*RES
1 *4086:X *4990:A 4.01 
*END

*D_NET *142 0.000649941
*CONN
*I *4996:A I *D sky130_fd_sc_hd__dlygate4sd3_1
*I *4087:X O *D sky130_fd_sc_hd__mux2_1
*CAP
1 *4996:A 0.000239673
2 *4087:X 0.000239673
3 *4996:A *4074:A1 8.52972e-05
4 *4996:A *4185:A1 8.52972e-05
5 *4996:A *4995:A 0
6 *4996:A *698:53 0
7 *4996:A *698:64 0
*RES
1 *4087:X *4996:A 11.415 
*END

*D_NET *143 0.000529318
*CONN
*I *4984:A I *D sky130_fd_sc_hd__dlygate4sd3_1
*I *4088:X O *D sky130_fd_sc_hd__mux2_1
*CAP
1 *4984:A 0.000135334
2 *4088:X 0.000135334
3 *4984:A *4088:A0 4.82919e-05
4 *4984:A *4578:RESET_B 8.93017e-05
5 *4984:A *4983:A 1.91597e-05
6 *4984:A *626:53 6.72143e-05
7 *4984:A *700:10 3.09164e-05
8 *3:30 *4984:A 3.76656e-06
*RES
1 *4088:X *4984:A 9.375 
*END

*D_NET *144 0.00122619
*CONN
*I *4579:D I *D sky130_fd_sc_hd__dfrtp_2
*I *4089:X O *D sky130_fd_sc_hd__mux2_1
*CAP
1 *4579:D 0.000296019
2 *4089:X 0.000296019
3 *4579:D *4164:C 0
4 *4579:D *4164:D 0.000160658
5 *4579:D *4571:RESET_B 2.75969e-05
6 *4579:D *4579:CLK 3.00381e-05
7 *4579:D *4934:A 0
8 *4579:D *627:37 4.16262e-05
9 *4579:D *627:52 1.01661e-05
10 *4579:D *627:76 5.12942e-05
11 *4579:D *1003:16 0
12 *4579:D *1065:10 8.35683e-05
13 *4579:D *1065:14 0.00022921
*RES
1 *4089:X *4579:D 14.4 
*END

*D_NET *145 0.000911433
*CONN
*I *4837:A I *D sky130_fd_sc_hd__dlygate4sd3_1
*I *4090:X O *D sky130_fd_sc_hd__mux2_1
*CAP
1 *4837:A 0.00014951
2 *4090:X 0.00014951
3 *4837:A *4082:A0 3.03775e-05
4 *4837:A *4895:A 0.000293032
5 *4837:A *702:14 0.000289004
*RES
1 *4090:X *4837:A 11.415 
*END

*D_NET *146 0.00126308
*CONN
*I *4581:D I *D sky130_fd_sc_hd__dfrtp_2
*I *4091:X O *D sky130_fd_sc_hd__mux2_1
*CAP
1 *4581:D 0.000607061
2 *4091:X 0.000607061
3 *4581:D *4091:S 5.83121e-06
4 *4581:D *4581:CLK 3.07686e-05
5 *4581:D *4581:RESET_B 1.23607e-05
*RES
1 *4091:X *4581:D 9.90875 
*END

*D_NET *147 0.000891856
*CONN
*I *4856:A I *D sky130_fd_sc_hd__dlygate4sd3_1
*I *4092:X O *D sky130_fd_sc_hd__mux2_1
*CAP
1 *4856:A 0.000208798
2 *4092:X 0.000208798
3 *4856:A *4092:S 0.000122699
4 *4856:A *4245:B1 0.00018471
5 *4856:A *4245:C1 7.89767e-05
6 *4856:A *4248:B2 0
7 *4856:A *1026:89 8.78735e-05
8 *4856:A *1100:20 0
*RES
1 *4092:X *4856:A 11.76 
*END

*D_NET *148 0.00139476
*CONN
*I *4583:D I *D sky130_fd_sc_hd__dfrtp_2
*I *4093:X O *D sky130_fd_sc_hd__mux2_1
*CAP
1 *4583:D 0.000305706
2 *4093:X 0.000305706
3 *4583:D *4070:A1 0.000167924
4 *4583:D *4575:CLK 0.000139238
5 *4583:D *4575:D 9.30717e-05
6 *4583:D *4583:CLK 0.000315303
7 *4583:D *614:22 4.38051e-05
8 *4583:D *990:76 0
9 *4583:D *1031:18 0
10 *4583:D *1031:88 2.40101e-05
11 *4583:D *1062:12 0
12 *4560:D *4583:D 0
*RES
1 *4093:X *4583:D 15.555 
*END

*D_NET *149 0.000554895
*CONN
*I *4993:A I *D sky130_fd_sc_hd__dlygate4sd3_1
*I *4094:X O *D sky130_fd_sc_hd__mux2_1
*CAP
1 *4993:A 0.000250254
2 *4094:X 0.000250254
3 *4993:A *4584:CLK 5.43869e-05
*RES
1 *4094:X *4993:A 6.335 
*END

*D_NET *150 0.000355986
*CONN
*I *4954:A I *D sky130_fd_sc_hd__dlygate4sd3_1
*I *4095:X O *D sky130_fd_sc_hd__mux2_1
*CAP
1 *4954:A 0.000121362
2 *4095:X 0.000121362
3 *4954:A *4585:D 1.96308e-05
4 *4954:A *4593:CLK 8.53011e-05
5 *4954:A *280:69 8.33066e-06
6 *4954:A *698:71 0
7 *4954:A *906:10 0
*RES
1 *4095:X *4954:A 9.375 
*END

*D_NET *151 0.000776707
*CONN
*I *4951:A I *D sky130_fd_sc_hd__dlygate4sd3_1
*I *4096:X O *D sky130_fd_sc_hd__mux2_1
*CAP
1 *4951:A 0.000195138
2 *4096:X 0.000195138
3 *4951:A *4096:A1 0.000103898
4 *4951:A *4096:S 8.68767e-06
5 *4951:A *4725:A 0
6 *4951:A *4740:A 0.000193801
7 *4951:A *4950:A 0
8 *4951:A *700:10 3.0807e-05
9 *4951:A *985:16 4.92368e-05
*RES
1 *4096:X *4951:A 11.43 
*END

*D_NET *152 0.000332184
*CONN
*I *4587:D I *D sky130_fd_sc_hd__dfrtp_2
*I *4097:X O *D sky130_fd_sc_hd__mux2_1
*CAP
1 *4587:D 0.0001032
2 *4097:X 0.0001032
3 *4587:D *4579:CLK 4.99619e-05
4 *4587:D *627:52 3.68682e-05
5 *4587:D *1003:16 3.89528e-05
*RES
1 *4097:X *4587:D 9.12 
*END

*D_NET *153 0.00105766
*CONN
*I *4588:D I *D sky130_fd_sc_hd__dfrtp_2
*I *4098:X O *D sky130_fd_sc_hd__mux2_1
*CAP
1 *4588:D 0.000267828
2 *4098:X 0.000267828
3 *4588:D *4074:A1 1.08758e-05
4 *4588:D *4185:A1 3.3625e-05
5 *4588:D *4588:CLK 3.09364e-05
6 *4588:D *4909:A 0.000118877
7 *4588:D *4917:A 0.000266474
8 *4588:D *722:77 6.12118e-05
*RES
1 *4098:X *4588:D 12.54 
*END

*D_NET *154 0.000175881
*CONN
*I *4876:A I *D sky130_fd_sc_hd__dlygate4sd3_1
*I *4099:X O *D sky130_fd_sc_hd__mux2_1
*CAP
1 *4876:A 8.79404e-05
2 *4099:X 8.79404e-05
*RES
1 *4099:X *4876:A 8.58 
*END

*D_NET *155 0.000251956
*CONN
*I *4590:D I *D sky130_fd_sc_hd__dfrtp_2
*I *4100:X O *D sky130_fd_sc_hd__mux2_1
*CAP
1 *4590:D 3.50616e-05
2 *4100:X 3.50616e-05
3 *4590:D *4247:C1 9.33942e-05
4 *4590:D *4590:CLK 8.84382e-05
*RES
1 *4100:X *4590:D 8.325 
*END

*D_NET *156 0.00123611
*CONN
*I *4591:D I *D sky130_fd_sc_hd__dfrtp_2
*I *4101:X O *D sky130_fd_sc_hd__mux2_1
*CAP
1 *4591:D 0.000193814
2 *4101:X 0.000193814
3 *4591:D *4085:A1 0.000292059
4 *4591:D *4093:A0 8.51879e-05
5 *4591:D *4591:RESET_B 8.71672e-05
6 *4591:D *4994:A 4.41506e-05
7 *4591:D *990:76 0.000292059
8 *4591:D *1085:6 4.78564e-05
*RES
1 *4101:X *4591:D 12.9 
*END

*D_NET *157 0.000346489
*CONN
*I *4946:A I *D sky130_fd_sc_hd__dlygate4sd3_1
*I *4102:X O *D sky130_fd_sc_hd__mux2_1
*CAP
1 *4946:A 0.000151204
2 *4102:X 0.000151204
3 *4946:A *4102:A0 0
4 *4946:A *4992:A 4.40812e-05
*RES
1 *4102:X *4946:A 9.72 
*END

*D_NET *158 0.00140245
*CONN
*I *4593:D I *D sky130_fd_sc_hd__dfrtp_2
*I *4103:X O *D sky130_fd_sc_hd__mux2_1
*CAP
1 *4593:D 0.000301868
2 *4103:X 0.000301868
3 *4593:D *4095:S 0.000259873
4 *4593:D *4183:A1 1.94636e-05
5 *4593:D *4363:B1 4.43871e-06
6 *4593:D *4497:RESET_B 9.55514e-05
7 *4593:D *4593:RESET_B 1.1392e-05
8 *4593:D *698:64 6.77013e-05
9 *4593:D *698:71 0.000340299
10 *4593:D *1087:8 0
*RES
1 *4103:X *4593:D 14.2688 
*END

*D_NET *159 0.000602809
*CONN
*I *4594:D I *D sky130_fd_sc_hd__dfrtp_2
*I *4104:X O *D sky130_fd_sc_hd__mux2_1
*CAP
1 *4594:D 9.8952e-05
2 *4104:X 9.8952e-05
3 *4594:D *4146:A1 7.36562e-05
4 *4594:D *626:25 0.000267591
5 *4594:D *1096:10 6.36578e-05
*RES
1 *4104:X *4594:D 10.365 
*END

*D_NET *160 0.000565401
*CONN
*I *4921:A I *D sky130_fd_sc_hd__dlygate4sd3_1
*I *4105:X O *D sky130_fd_sc_hd__mux2_1
*CAP
1 *4921:A 0.000111579
2 *4105:X 0.000111579
3 *4921:A *4161:A1 0.000138808
4 *4921:A *307:10 0.0001947
5 *4921:A *613:22 8.73389e-06
*RES
1 *4105:X *4921:A 6.08 
*END

*D_NET *161 0.000720383
*CONN
*I *4896:A I *D sky130_fd_sc_hd__dlygate4sd3_1
*I *4106:X O *D sky130_fd_sc_hd__mux2_1
*CAP
1 *4896:A 0.000240288
2 *4106:X 0.000240288
3 *4896:A *4106:S 0.000239807
4 *4896:A *4114:A1 0
5 *4896:A *4596:D 0
*RES
1 *4106:X *4896:A 10.755 
*END

*D_NET *162 0.00117926
*CONN
*I *4957:A I *D sky130_fd_sc_hd__dlygate4sd3_1
*I *4107:X O *D sky130_fd_sc_hd__mux2_1
*CAP
1 *4957:A 0.000224742
2 *4107:X 0.000224742
3 *4957:A *4211:C 0.000239792
4 *4957:A *909:12 0.000292258
5 *4957:A *993:31 0.000197726
*RES
1 *4107:X *4957:A 12.45 
*END

*D_NET *163 0.000306168
*CONN
*I *4598:D I *D sky130_fd_sc_hd__dfrtp_2
*I *4108:X O *D sky130_fd_sc_hd__mux2_1
*CAP
1 *4598:D 0.000134709
2 *4108:X 0.000134709
3 *4598:D *4108:A0 5.83121e-06
4 *4598:D *4598:RESET_B 0
5 *4598:D *1003:46 3.09179e-05
6 *4598:D *1089:8 0
*RES
1 *4108:X *4598:D 9.12 
*END

*D_NET *164 0.000491259
*CONN
*I *4941:A I *D sky130_fd_sc_hd__dlygate4sd3_1
*I *4109:X O *D sky130_fd_sc_hd__mux2_1
*CAP
1 *4941:A 0.000188194
2 *4109:X 0.000188194
3 *4941:A *4070:A1 7.06865e-05
4 *4941:A *4607:RESET_B 0
5 *4941:A *1093:10 0
6 *4941:A *1109:10 4.41857e-05
*RES
1 *4109:X *4941:A 10.62 
*END

*D_NET *165 0.00116341
*CONN
*I *4944:A I *D sky130_fd_sc_hd__dlygate4sd3_1
*I *4110:X O *D sky130_fd_sc_hd__mux2_1
*CAP
1 *4944:A 0.000224255
2 *4110:X 0.000224255
3 *4944:A *4110:A0 3.64998e-06
4 *4944:A *4110:A1 4.14594e-05
5 *4944:A *4270:D_N 0.000319167
6 *4944:A *4272:A2 0.000317507
7 *4944:A *4316:B2 3.31103e-05
*RES
1 *4110:X *4944:A 13.155 
*END

*D_NET *166 0.000697789
*CONN
*I *4601:D I *D sky130_fd_sc_hd__dfrtp_2
*I *4111:X O *D sky130_fd_sc_hd__mux2_1
*CAP
1 *4601:D 0.000108922
2 *4111:X 0.000108922
3 *4601:D *4119:A0 7.4027e-05
4 *4601:D *4374:A 0.000116151
5 *4601:D *985:16 0.000289766
*RES
1 *4111:X *4601:D 10.62 
*END

*D_NET *167 0.00119521
*CONN
*I *4949:A I *D sky130_fd_sc_hd__dlygate4sd3_1
*I *4112:X O *D sky130_fd_sc_hd__mux2_1
*CAP
1 *4949:A 0.000288576
2 *4112:X 0.000288576
3 *4949:A *4104:A0 4.82863e-05
4 *4949:A *982:38 0.000538549
5 *4949:A *982:77 3.12176e-05
*RES
1 *4112:X *4949:A 8.84 
*END

*D_NET *168 0.000471738
*CONN
*I *4603:D I *D sky130_fd_sc_hd__dfrtp_2
*I *4113:X O *D sky130_fd_sc_hd__mux2_1
*CAP
1 *4603:D 0.000128261
2 *4113:X 0.000128261
3 *4603:D *4105:S 8.53113e-06
4 *4603:D *5039:A 5.84902e-05
5 *4603:D *313:10 0
6 *4603:D *1012:38 0.000148194
*RES
1 *4113:X *4603:D 10.365 
*END

*D_NET *169 0.000560711
*CONN
*I *4972:A I *D sky130_fd_sc_hd__dlygate4sd3_1
*I *4114:X O *D sky130_fd_sc_hd__mux2_1
*CAP
1 *4972:A 0.000196847
2 *4114:X 0.000196847
3 *4972:A *4106:A0 8.31082e-05
4 *4972:A *4114:A1 6.55328e-05
5 *4972:A *4114:S 0
6 *4972:A *4604:D 1.83756e-05
*RES
1 *4114:X *4972:A 11.1 
*END

*D_NET *170 0.000407852
*CONN
*I *4605:D I *D sky130_fd_sc_hd__dfrtp_2
*I *4115:X O *D sky130_fd_sc_hd__mux2_1
*CAP
1 *4605:D 9.49205e-05
2 *4115:X 9.49205e-05
3 *4605:D *4115:A1 8.57024e-05
4 *4605:D *4115:S 3.68682e-05
5 *4605:D *992:12 9.54399e-05
*RES
1 *4115:X *4605:D 9.12 
*END

*D_NET *171 0.000960645
*CONN
*I *4823:A I *D sky130_fd_sc_hd__dlygate4sd3_1
*I *4116:X O *D sky130_fd_sc_hd__mux2_1
*CAP
1 *4823:A 0.000141314
2 *4116:X 0.000141314
3 *4823:A *4124:S 0.000110492
4 *4823:A *4242:D 8.40269e-05
5 *4823:A *4248:A1 0.000231596
6 *4823:A *4248:B2 0
7 *4823:A *392:18 0
8 *4823:A *1021:30 4.08514e-05
9 *4823:A *1029:45 0.00021105
*RES
1 *4116:X *4823:A 11.445 
*END

*D_NET *172 0.000437797
*CONN
*I *4974:A I *D sky130_fd_sc_hd__dlygate4sd3_1
*I *4117:X O *D sky130_fd_sc_hd__mux2_1
*CAP
1 *4974:A 0.000122121
2 *4117:X 0.000122121
3 *4974:A *4117:A0 8.65961e-05
4 *4974:A *4268:A1 4.40812e-05
5 *4974:A *4273:B2 6.28765e-05
*RES
1 *4117:X *4974:A 9.375 
*END

*D_NET *173 0.000584021
*CONN
*I *4608:D I *D sky130_fd_sc_hd__dfrtp_2
*I *4118:X O *D sky130_fd_sc_hd__mux2_1
*CAP
1 *4608:D 8.65655e-05
2 *4118:X 8.65655e-05
3 *4608:D *4310:D 0.000208484
4 *4608:D *4943:A 7.23602e-05
5 *4608:D *614:146 8.08439e-05
6 *4608:D *1023:43 4.92014e-05
*RES
1 *4118:X *4608:D 10.365 
*END

*D_NET *174 0.00155853
*CONN
*I *4979:A I *D sky130_fd_sc_hd__dlygate4sd3_1
*I *4119:X O *D sky130_fd_sc_hd__mux2_1
*CAP
1 *4979:A 0.000364348
2 *4119:X 0.000364348
3 *4979:A *4119:A0 0
4 *4979:A *4184:A2 0.000274061
5 *4979:A *4363:B1 0
6 *4979:A *4609:D 0.000282874
7 *4979:A *4617:D 0
8 *4979:A *280:69 0.000272903
9 *4979:A *1095:10 0
*RES
1 *4119:X *4979:A 15.435 
*END

*D_NET *175 0.00148597
*CONN
*I *4610:D I *D sky130_fd_sc_hd__dfrtp_2
*I *4120:X O *D sky130_fd_sc_hd__mux2_1
*CAP
1 *4610:D 0.000552982
2 *4120:X 0.000552982
3 *4610:D *4104:S 7.06865e-05
4 *4610:D *4120:S 8.43862e-05
5 *4610:D *4148:A2 4.0031e-05
6 *4610:D *4184:B1 5.80683e-05
7 *4610:D *4594:RESET_B 0
8 *4610:D *280:34 7.21296e-06
9 *4610:D *294:10 1.79536e-05
10 *4610:D *295:16 7.66792e-05
11 *4610:D *702:28 0
12 *4610:D *999:16 2.49909e-05
*RES
1 *4120:X *4610:D 15 
*END

*D_NET *176 0.000490674
*CONN
*I *4803:A I *D sky130_fd_sc_hd__dlygate4sd3_1
*I *4121:X O *D sky130_fd_sc_hd__mux2_1
*CAP
1 *4803:A 0.000163674
2 *4121:X 0.000163674
3 *4803:A *4121:A1 8.65905e-05
4 *4803:A *1026:36 7.67345e-05
*RES
1 *4121:X *4803:A 6.08 
*END

*D_NET *177 0.000649531
*CONN
*I *4612:D I *D sky130_fd_sc_hd__dfrtp_2
*I *4122:X O *D sky130_fd_sc_hd__mux2_1
*CAP
1 *4612:D 0.000262315
2 *4122:X 0.000262315
3 *4612:D *4122:A1 0
4 *4612:D *4612:RESET_B 0.0001249
*RES
1 *4122:X *4612:D 11.505 
*END

*D_NET *178 0.000765562
*CONN
*I *4816:A I *D sky130_fd_sc_hd__dlygate4sd3_1
*I *4123:X O *D sky130_fd_sc_hd__mux2_1
*CAP
1 *4816:A 0.000112648
2 *4123:X 0.000112648
3 *4816:A *4123:A1 7.33465e-05
4 *4816:A *4613:D 0.000120186
5 *4816:A *623:6 4.82919e-05
6 *4816:A *1022:55 0.000298442
*RES
1 *4123:X *4816:A 11.07 
*END

*D_NET *179 0.000738695
*CONN
*I *4960:A I *D sky130_fd_sc_hd__dlygate4sd3_1
*I *4124:X O *D sky130_fd_sc_hd__mux2_1
*CAP
1 *4960:A 0.0002327
2 *4124:X 0.0002327
3 *4960:A *4610:RESET_B 0.000118513
4 *4960:A *983:20 0.000154782
*RES
1 *4124:X *4960:A 10.755 
*END

*D_NET *180 0.000647442
*CONN
*I *4615:D I *D sky130_fd_sc_hd__dfrtp_2
*I *4125:X O *D sky130_fd_sc_hd__mux2_1
*CAP
1 *4615:D 0.000323721
2 *4125:X 0.000323721
3 *4615:D *4101:A0 0
4 *4615:D *4599:RESET_B 0
5 *4615:D *4615:CLK 0
6 *4615:D *620:17 0
*RES
1 *4125:X *4615:D 11.76 
*END

*D_NET *181 0.000444142
*CONN
*I *4962:A I *D sky130_fd_sc_hd__dlygate4sd3_1
*I *4126:X O *D sky130_fd_sc_hd__mux2_1
*CAP
1 *4962:A 0.000106487
2 *4126:X 0.000106487
3 *4962:A *4118:A0 1.65192e-05
4 *4962:A *4311:C1 0.000116165
5 *4962:A *4616:D 7.23533e-05
6 *4962:A *991:66 2.61299e-05
*RES
1 *4126:X *4962:A 9.375 
*END

*D_NET *182 0.00148122
*CONN
*I *4965:A I *D sky130_fd_sc_hd__dlygate4sd3_1
*I *4127:X O *D sky130_fd_sc_hd__mux2_1
*CAP
1 *4965:A 0.000190747
2 *4127:X 0.000190747
3 *4965:A *4127:A1 8.23457e-05
4 *4965:A *4369:C1 0.00015466
5 *4965:A *4609:RESET_B 0.000227857
6 *4965:A *280:51 0.000508052
7 *4965:A *891:26 8.73389e-06
8 *4965:A *998:48 0.000118081
*RES
1 *4127:X *4965:A 14.31 
*END

*D_NET *183 0.00047227
*CONN
*I *4618:D I *D sky130_fd_sc_hd__dfrtp_2
*I *4151:X O *D sky130_fd_sc_hd__mux2_1
*CAP
1 *4618:D 0.000183961
2 *4151:X 0.000183961
3 *4618:D *4151:A0 2.75145e-05
4 *4618:D *4151:A1 4.29198e-05
5 *4618:D *4619:RESET_B 3.39151e-05
*RES
1 *4151:X *4618:D 9.81 
*END

*D_NET *184 0.00123325
*CONN
*I *4619:D I *D sky130_fd_sc_hd__dfrtp_2
*I *4171:X O *D sky130_fd_sc_hd__mux2_1
*CAP
1 *4619:D 0.000310444
2 *4171:X 0.000310444
3 *4619:D *4620:RESET_B 9.14049e-05
4 *4619:D *258:16 0.000427876
5 *4619:D *261:10 9.30787e-05
*RES
1 *4171:X *4619:D 12.225 
*END

*D_NET *185 0.00038707
*CONN
*I *4620:D I *D sky130_fd_sc_hd__dfrtp_2
*I *4197:Y O *D sky130_fd_sc_hd__o31ai_2
*CAP
1 *4620:D 0.000116792
2 *4197:Y 0.000116792
3 *4620:D *4197:A1 8.73389e-06
4 *4620:D *4197:A3 4.82863e-05
5 *4620:D *4620:RESET_B 3.09233e-05
6 *4620:D *261:18 6.28843e-05
7 *4620:D *261:37 2.65814e-06
*RES
1 *4197:Y *4620:D 9.375 
*END

*D_NET *186 0.000466882
*CONN
*I *4621:D I *D sky130_fd_sc_hd__dfrtp_2
*I *4227:X O *D sky130_fd_sc_hd__mux2_1
*CAP
1 *4621:D 0.000105223
2 *4227:X 0.000105223
3 *4621:D *4227:A1 1.94723e-05
4 *4621:D *4400:A2 0.000116158
5 *4621:D *261:37 3.67779e-05
6 *4621:D *629:70 8.40269e-05
*RES
1 *4227:X *4621:D 9.375 
*END

*D_NET *187 0.000766484
*CONN
*I *4622:D I *D sky130_fd_sc_hd__dfrtp_2
*I *4264:X O *D sky130_fd_sc_hd__mux2_1
*CAP
1 *4622:D 0.0001311
2 *4264:X 0.0001311
3 *4622:D *4264:S 8.65905e-05
4 *4622:D *4400:B1 0.000296088
5 *4622:D *261:49 0.000121605
*RES
1 *4264:X *4622:D 11.415 
*END

*D_NET *188 0.000456445
*CONN
*I *4623:D I *D sky130_fd_sc_hd__dfrtp_2
*I *4306:X O *D sky130_fd_sc_hd__mux2_1
*CAP
1 *4623:D 0.000125122
2 *4306:X 0.000125122
3 *4623:D *4306:A1 0.000121043
4 *4623:D *4400:A2 3.50571e-05
5 *4623:D *4400:B1 5.01003e-05
*RES
1 *4306:X *4623:D 9.465 
*END

*D_NET *189 0.000722348
*CONN
*I *4624:D I *D sky130_fd_sc_hd__dfrtp_2
*I *4356:X O *D sky130_fd_sc_hd__mux2_1
*CAP
1 *4624:D 0.000260015
2 *4356:X 0.000260015
3 *4624:D *4356:A0 0.00012657
4 *4624:D *4356:S 0
5 *4624:D *4625:RESET_B 0
6 *4624:D *617:68 6.73751e-05
7 *4624:D *617:81 4.18603e-06
8 *4624:D *617:91 4.18603e-06
*RES
1 *4356:X *4624:D 11.76 
*END

*D_NET *190 0.000778405
*CONN
*I *4625:D I *D sky130_fd_sc_hd__dfrtp_2
*I *4391:X O *D sky130_fd_sc_hd__mux2_1
*CAP
1 *4625:D 0.000193929
2 *4391:X 0.000193929
3 *4625:D *4356:A0 0
4 *4625:D *4391:A0 0.000390546
5 *4625:D *617:81 0
*RES
1 *4391:X *4625:D 11.58 
*END

*D_NET *191 0.000424828
*CONN
*I *4626:D I *D sky130_fd_sc_hd__dfrtp_2
*I *4393:X O *D sky130_fd_sc_hd__a22o_2
*CAP
1 *4626:D 0.000167752
2 *4393:X 0.000167752
3 *4626:D *4393:A1 1.16578e-05
4 *4626:D *4393:A2 4.30176e-06
5 *4626:D *4393:B1 2.92826e-05
6 *4626:D *4393:B2 4.40812e-05
*RES
1 *4393:X *4626:D 9.72 
*END

*D_NET *192 0.000815358
*CONN
*I *4627:D I *D sky130_fd_sc_hd__dfrtp_2
*I *4394:X O *D sky130_fd_sc_hd__a22o_2
*CAP
1 *4627:D 0.000327691
2 *4394:X 0.000327691
3 *4627:D *4406:D_N 0
4 *4627:D *4627:RESET_B 8.53113e-06
5 *4627:D *262:60 0
6 *4627:D *579:42 3.18137e-05
7 *4627:D *710:16 0
8 *4627:D *836:71 0.000119631
9 *4627:D *980:77 0
*RES
1 *4394:X *4627:D 12.195 
*END

*D_NET *193 0.00142759
*CONN
*I *5002:A I *D sky130_fd_sc_hd__dlygate4sd3_1
*I *4395:X O *D sky130_fd_sc_hd__a22o_2
*CAP
1 *5002:A 0.000512409
2 *4395:X 0.000512409
3 *5002:A *4395:A1 0.000116001
4 *5002:A *4395:A2 1.37395e-05
5 *5002:A *4395:B2 0
6 *5002:A *4628:D 6.74079e-05
7 *5002:A *4628:RESET_B 0.000151797
8 *5002:A *4636:D 0
9 *5002:A *5013:A 5.53249e-06
10 *5002:A *613:106 0
11 *5002:A *629:60 4.82919e-05
12 *5002:A *836:73 0
*RES
1 *4395:X *5002:A 16.6087 
*END

*D_NET *194 0.00139963
*CONN
*I *5013:A I *D sky130_fd_sc_hd__dlygate4sd3_1
*I *4396:X O *D sky130_fd_sc_hd__a22o_2
*CAP
1 *5013:A 0.000384481
2 *4396:X 0.000384481
3 *5013:A *4396:A1 0.000538544
4 *5013:A *4411:B 8.65905e-05
5 *5013:A *613:106 0
6 *5013:A *836:73 0
7 *5002:A *5013:A 5.53249e-06
*RES
1 *4396:X *5013:A 14.535 
*END

*D_NET *195 0.000593959
*CONN
*I *5005:A I *D sky130_fd_sc_hd__dlygate4sd3_1
*I *4397:X O *D sky130_fd_sc_hd__a22o_2
*CAP
1 *5005:A 0.000212436
2 *4397:X 0.000212436
3 *5005:A *4397:A2 3.62211e-05
4 *5005:A *4397:B1 0.000132866
5 *5005:A *4397:B2 0
6 *5005:A *4458:S 0
*RES
1 *4397:X *5005:A 11.385 
*END

*D_NET *196 0.00155155
*CONN
*I *4631:D I *D sky130_fd_sc_hd__dfrtp_2
*I *4398:X O *D sky130_fd_sc_hd__a22o_2
*CAP
1 *4631:D 0.000429861
2 *4398:X 0.000429861
3 *4631:D *4430:A2 0
4 *4631:D *4631:RESET_B 0.000105124
5 *4631:D *4732:A 0
6 *4631:D *980:103 4.38051e-05
7 *4631:D *980:109 0.000542902
*RES
1 *4398:X *4631:D 16.11 
*END

*D_NET *197 0.00036337
*CONN
*I *5007:A I *D sky130_fd_sc_hd__dlygate4sd3_1
*I *4399:X O *D sky130_fd_sc_hd__a22o_2
*CAP
1 *5007:A 0.000122774
2 *4399:X 0.000122774
3 *5007:A *4399:A2 8.79638e-05
4 *5007:A *560:12 2.98587e-05
*RES
1 *4399:X *5007:A 9.6 
*END

*D_NET *198 0.000554483
*CONN
*I *4633:D I *D sky130_fd_sc_hd__dfrtp_2
*I *4400:X O *D sky130_fd_sc_hd__a22o_2
*CAP
1 *4633:D 0.000200626
2 *4400:X 0.000200626
3 *4633:D *4474:S 6.97199e-05
4 *4633:D *4906:A 8.35118e-05
*RES
1 *4400:X *4633:D 10.83 
*END

*D_NET *199 0.000196197
*CONN
*I *4634:D I *D sky130_fd_sc_hd__dfrtp_2
*I *4402:X O *D sky130_fd_sc_hd__mux2_1
*CAP
1 *4634:D 3.98349e-05
2 *4402:X 3.98349e-05
3 *4634:D *4393:A1 4.91189e-05
4 *4634:D *4626:RESET_B 6.74079e-05
*RES
1 *4402:X *4634:D 8.58 
*END

*D_NET *200 0.000554638
*CONN
*I *4635:D I *D sky130_fd_sc_hd__dfrtp_2
*I *4409:X O *D sky130_fd_sc_hd__a22o_2
*CAP
1 *4635:D 0.000162127
2 *4409:X 0.000162127
3 *4635:D *262:60 3.86607e-05
4 *4635:D *628:25 6.88253e-05
5 *4635:D *628:27 5.05437e-05
6 *4635:D *628:38 7.23533e-05
*RES
1 *4409:X *4635:D 9.82875 
*END

*D_NET *201 0.000386403
*CONN
*I *4636:D I *D sky130_fd_sc_hd__dfrtp_2
*I *4415:X O *D sky130_fd_sc_hd__mux2_1
*CAP
1 *4636:D 0.00012551
2 *4415:X 0.00012551
3 *4636:D *4395:B2 0
4 *4636:D *262:105 4.82919e-05
5 *4636:D *613:106 8.70923e-05
6 *5002:A *4636:D 0
*RES
1 *4415:X *4636:D 9.54 
*END

*D_NET *202 0.00053429
*CONN
*I *4637:D I *D sky130_fd_sc_hd__dfrtp_2
*I *4420:X O *D sky130_fd_sc_hd__a41o_2
*CAP
1 *4637:D 0.000105332
2 *4420:X 0.000105332
3 *4637:D *4420:B1 0.00020344
4 *4637:D *4466:S 0.000120186
*RES
1 *4420:X *4637:D 9.72 
*END

*D_NET *203 0.000306988
*CONN
*I *4638:D I *D sky130_fd_sc_hd__dfrtp_2
*I *4426:X O *D sky130_fd_sc_hd__mux2_1
*CAP
1 *4638:D 7.83436e-05
2 *4426:X 7.83436e-05
3 *4638:D *4426:A0 4.70343e-05
4 *4638:D *615:51 4.18603e-06
5 *4638:D *615:59 9.90808e-05
*RES
1 *4426:X *4638:D 9.03 
*END

*D_NET *204 0.000414842
*CONN
*I *4639:D I *D sky130_fd_sc_hd__dfrtp_2
*I *4432:X O *D sky130_fd_sc_hd__mux2_1
*CAP
1 *4639:D 0.000132687
2 *4432:X 0.000132687
3 *4639:D *4397:A1 8.64599e-05
4 *4639:D *4432:A0 6.30072e-05
*RES
1 *4432:X *4639:D 9.375 
*END

*D_NET *205 0.000471892
*CONN
*I *4640:D I *D sky130_fd_sc_hd__dfrtp_2
*I *4438:X O *D sky130_fd_sc_hd__mux2_1
*CAP
1 *4640:D 8.74374e-05
2 *4438:X 8.74374e-05
3 *4640:D *4438:A0 0.000160658
4 *4640:D *4442:S 8.97486e-05
5 *4640:D *4450:S 4.66108e-05
*RES
1 *4438:X *4640:D 9.54 
*END

*D_NET *206 0.00054523
*CONN
*I *4641:D I *D sky130_fd_sc_hd__dfrtp_2
*I *4442:X O *D sky130_fd_sc_hd__mux2_1
*CAP
1 *4641:D 0.000182405
2 *4442:X 0.000182405
3 *4641:D *4356:A1 4.60584e-05
4 *4641:D *4442:A0 0.000134361
5 *4641:D *4458:A1 0
*RES
1 *4442:X *4641:D 9.81 
*END

*D_NET *207 0.000930754
*CONN
*I *4642:D I *D sky130_fd_sc_hd__dfrtp_2
*I *4443:X O *D sky130_fd_sc_hd__mux2_1
*CAP
1 *4642:D 0.000320326
2 *4443:X 0.000320326
3 *4642:D *4402:A1 9.55787e-05
4 *4642:D *4443:A0 0.000194523
5 *4642:D *628:50 0
*RES
1 *4443:X *4642:D 13.56 
*END

*D_NET *208 0.000281927
*CONN
*I *4643:D I *D sky130_fd_sc_hd__dfrtp_2
*I *4444:X O *D sky130_fd_sc_hd__mux2_1
*CAP
1 *4643:D 9.07692e-05
2 *4444:X 9.07692e-05
3 *4643:D *4643:RESET_B 0
4 *4643:D *4651:CLK 5.20968e-05
5 *4643:D *720:91 4.82919e-05
*RES
1 *4444:X *4643:D 8.775 
*END

*D_NET *209 0.000686322
*CONN
*I *4644:D I *D sky130_fd_sc_hd__dfrtp_2
*I *4445:X O *D sky130_fd_sc_hd__mux2_1
*CAP
1 *4644:D 7.3216e-05
2 *4445:X 7.3216e-05
3 *4644:D *4446:A1 0.000149759
4 *4644:D *4861:A 0.000120186
5 *4644:D *259:54 0.000269945
*RES
1 *4445:X *4644:D 10.365 
*END

*D_NET *210 0.000394005
*CONN
*I *4810:A I *D sky130_fd_sc_hd__dlygate4sd3_1
*I *4446:X O *D sky130_fd_sc_hd__mux2_1
*CAP
1 *4810:A 0.000143785
2 *4446:X 0.000143785
3 *4810:A *4707:A 1.26626e-05
4 *4810:A *4722:A 9.37731e-05
5 *4810:A *259:48 0
*RES
1 *4446:X *4810:A 9.72 
*END

*D_NET *211 0.000418107
*CONN
*I *4646:D I *D sky130_fd_sc_hd__dfrtp_2
*I *4447:X O *D sky130_fd_sc_hd__mux2_1
*CAP
1 *4646:D 9.78778e-05
2 *4447:X 9.78778e-05
3 *4646:D *4426:A1 4.66108e-05
4 *4646:D *4447:A0 2.46089e-05
5 *4646:D *4631:RESET_B 2.75229e-05
6 *4646:D *4695:A 9.14049e-05
7 *4646:D *615:66 2.49909e-05
8 *4646:D *777:8 7.21296e-06
*RES
1 *4447:X *4646:D 9.225 
*END

*D_NET *212 0.000415049
*CONN
*I *4647:D I *D sky130_fd_sc_hd__dfrtp_2
*I *4448:X O *D sky130_fd_sc_hd__mux2_1
*CAP
1 *4647:D 0.000186724
2 *4448:X 0.000186724
3 *4647:D *4695:A 4.16007e-05
*RES
1 *4448:X *4647:D 10.365 
*END

*D_NET *213 0.000288978
*CONN
*I *4829:A I *D sky130_fd_sc_hd__dlygate4sd3_1
*I *4449:X O *D sky130_fd_sc_hd__mux2_1
*CAP
1 *4829:A 0.00014227
2 *4449:X 0.00014227
3 *4829:A *4449:S 4.43871e-06
4 *4829:A *4890:A 0
*RES
1 *4449:X *4829:A 9.375 
*END

*D_NET *214 0.00094434
*CONN
*I *4793:A I *D sky130_fd_sc_hd__dlygate4sd3_1
*I *4450:X O *D sky130_fd_sc_hd__mux2_1
*CAP
1 *4793:A 0.000202372
2 *4450:X 0.000202372
3 *4793:A *4437:B 0.0002014
4 *4793:A *4450:S 0.000229536
5 *4793:A *560:12 0.000108659
*RES
1 *4450:X *4793:A 11.775 
*END

*D_NET *215 0.000363999
*CONN
*I *4650:D I *D sky130_fd_sc_hd__dfrtp_2
*I *4451:X O *D sky130_fd_sc_hd__mux2_1
*CAP
1 *4650:D 0.000182
2 *4451:X 0.000182
3 *4650:D *4443:S 0
4 *4650:D *4859:A 0
*RES
1 *4451:X *4650:D 9.465 
*END

*D_NET *216 0.000426489
*CONN
*I *4651:D I *D sky130_fd_sc_hd__dfrtp_2
*I *4452:X O *D sky130_fd_sc_hd__mux2_1
*CAP
1 *4651:D 0.000155493
2 *4452:X 0.000155493
3 *4651:D *4643:RESET_B 0
4 *4651:D *259:48 6.47516e-05
5 *4651:D *263:39 5.0751e-05
*RES
1 *4452:X *4651:D 9.72 
*END

*D_NET *217 0.000814822
*CONN
*I *4652:D I *D sky130_fd_sc_hd__dfrtp_2
*I *4453:X O *D sky130_fd_sc_hd__mux2_1
*CAP
1 *4652:D 0.000210752
2 *4453:X 0.000210752
3 *4652:D *4395:A1 0.000114492
4 *4652:D *4453:S 4.99619e-05
5 *4652:D *4644:RESET_B 6.71882e-05
6 *4652:D *629:143 0.000123286
7 *4652:D *717:47 3.83902e-05
*RES
1 *4453:X *4652:D 11.895 
*END

*D_NET *218 0.000428085
*CONN
*I *4653:D I *D sky130_fd_sc_hd__dfrtp_2
*I *4454:X O *D sky130_fd_sc_hd__mux2_1
*CAP
1 *4653:D 0.000140782
2 *4454:X 0.000140782
3 *4653:D *4446:A1 5.53249e-06
4 *4653:D *4645:RESET_B 7.35813e-05
5 *4653:D *4861:A 6.74079e-05
6 *4653:D *263:45 0
*RES
1 *4454:X *4653:D 10.065 
*END

*D_NET *219 0.000560582
*CONN
*I *4825:A I *D sky130_fd_sc_hd__dlygate4sd3_1
*I *4455:X O *D sky130_fd_sc_hd__mux2_1
*CAP
1 *4825:A 0.000172469
2 *4455:X 0.000172469
3 *4825:A *4397:A1 0
4 *4825:A *4463:A1 0
5 *4825:A *4654:D 7.81914e-05
6 *4825:A *5003:A 0.000137452
7 *4825:A *263:61 0
*RES
1 *4455:X *4825:A 10.755 
*END

*D_NET *220 0.000564028
*CONN
*I *4655:D I *D sky130_fd_sc_hd__dfrtp_2
*I *4456:X O *D sky130_fd_sc_hd__mux2_1
*CAP
1 *4655:D 0.000111053
2 *4456:X 0.000111053
3 *4655:D *4399:A1 7.01132e-05
4 *4655:D *4457:S 8.9257e-05
5 *4655:D *4862:A 4.58691e-05
6 *4655:D *263:61 1.56428e-05
7 *4655:D *616:97 0.000121039
*RES
1 *4456:X *4655:D 9.915 
*END

*D_NET *221 0.000690206
*CONN
*I *4656:D I *D sky130_fd_sc_hd__dfrtp_2
*I *4457:X O *D sky130_fd_sc_hd__mux2_1
*CAP
1 *4656:D 0.000229781
2 *4457:X 0.000229781
3 *4656:D *4449:S 0
4 *4656:D *4457:A0 0
5 *4656:D *601:12 9.30717e-05
6 *4656:D *616:128 0.000137571
7 *4656:D *714:14 0
*RES
1 *4457:X *4656:D 11.16 
*END

*D_NET *222 0.000403669
*CONN
*I *4801:A I *D sky130_fd_sc_hd__dlygate4sd3_1
*I *4458:X O *D sky130_fd_sc_hd__mux2_1
*CAP
1 *4801:A 0.00013855
2 *4458:X 0.00013855
3 *4801:A *4657:D 0
4 *4801:A *4930:A 0
5 *4801:A *5072:A 0.00012657
*RES
1 *4458:X *4801:A 9.72 
*END

*D_NET *223 0.000884205
*CONN
*I *4831:A I *D sky130_fd_sc_hd__dlygate4sd3_1
*I *4459:X O *D sky130_fd_sc_hd__mux2_1
*CAP
1 *4831:A 0.000350492
2 *4459:X 0.000350492
3 *4831:A *4650:RESET_B 0
4 *4831:A *4830:A 2.16917e-05
5 *4831:A *5010:A 0
6 *4831:A *260:68 0.000161529
7 *4831:A *717:73 0
*RES
1 *4459:X *4831:A 12.45 
*END

*D_NET *224 0.000469426
*CONN
*I *4821:A I *D sky130_fd_sc_hd__dlygate4sd3_1
*I *4460:X O *D sky130_fd_sc_hd__mux2_1
*CAP
1 *4821:A 0.000132206
2 *4460:X 0.000132206
3 *4821:A *4460:A1 3.94592e-05
4 *4821:A *260:68 4.70343e-05
5 *4821:A *717:73 0.00011852
*RES
1 *4460:X *4821:A 9.72 
*END

*D_NET *225 0.000981753
*CONN
*I *4813:A I *D sky130_fd_sc_hd__dlygate4sd3_1
*I *4461:X O *D sky130_fd_sc_hd__mux2_1
*CAP
1 *4813:A 0.000366751
2 *4461:X 0.000366751
3 *4813:A *4469:A1 6.02202e-05
4 *4813:A *258:45 0.000139646
5 *4813:A *258:116 8.53113e-06
6 *4813:A *1122:14 3.9853e-05
*RES
1 *4461:X *4813:A 12.135 
*END

*D_NET *226 0.000949079
*CONN
*I *4827:A I *D sky130_fd_sc_hd__dlygate4sd3_1
*I *4462:X O *D sky130_fd_sc_hd__mux2_1
*CAP
1 *4827:A 0.000375719
2 *4462:X 0.000375719
3 *4827:A *4826:A 0.00011362
4 *4827:A *764:12 8.40213e-05
5 *4827:A *799:8 0
*RES
1 *4462:X *4827:A 12.24 
*END

*D_NET *227 0.000286783
*CONN
*I *4898:A I *D sky130_fd_sc_hd__dlygate4sd3_1
*I *4463:X O *D sky130_fd_sc_hd__mux2_1
*CAP
1 *4898:A 0.000143391
2 *4463:X 0.000143391
3 *4898:A *260:80 0
4 *4898:A *263:51 0
*RES
1 *4463:X *4898:A 9.375 
*END

*D_NET *228 0.00081301
*CONN
*I *4841:A I *D sky130_fd_sc_hd__dlygate4sd3_1
*I *4464:X O *D sky130_fd_sc_hd__mux2_1
*CAP
1 *4841:A 0.000145702
2 *4464:X 0.000145702
3 *4841:A *4456:A1 8.52972e-05
4 *4841:A *4671:CLK 0.000114524
5 *4841:A *616:177 0.000178946
6 *4841:A *713:12 5.87002e-05
7 *4841:A *721:27 8.41384e-05
*RES
1 *4464:X *4841:A 11.415 
*END

*D_NET *229 0.00070537
*CONN
*I *4864:A I *D sky130_fd_sc_hd__dlygate4sd3_1
*I *4465:X O *D sky130_fd_sc_hd__mux2_1
*CAP
1 *4864:A 0.000223988
2 *4465:X 0.000223988
3 *4864:A *4465:A0 4.65565e-05
4 *4864:A *4664:RESET_B 0.000210839
*RES
1 *4465:X *4864:A 11.76 
*END

*D_NET *230 0.00132272
*CONN
*I *4906:A I *D sky130_fd_sc_hd__dlygate4sd3_1
*I *4466:X O *D sky130_fd_sc_hd__mux2_1
*CAP
1 *4906:A 0.000344288
2 *4466:X 0.000344288
3 *4906:A *4400:A1 4.06619e-05
4 *4906:A *4400:A2 6.40939e-05
5 *4906:A *4400:B1 5.81739e-05
6 *4906:A *4400:B2 0.00011272
7 *4906:A *4440:B 7.03276e-05
8 *4906:A *4633:RESET_B 0.000177142
9 *4906:A *1127:19 2.75145e-05
10 *4633:D *4906:A 8.35118e-05
*RES
1 *4466:X *4906:A 14.535 
*END

*D_NET *231 0.000619014
*CONN
*I *4884:A I *D sky130_fd_sc_hd__dlygate4sd3_1
*I *4467:X O *D sky130_fd_sc_hd__mux2_1
*CAP
1 *4884:A 0.000257333
2 *4467:X 0.000257333
3 *4884:A *4467:A0 5.43869e-05
4 *4884:A *4467:A1 4.99619e-05
5 *4884:A *4666:D 0
6 *4884:A *5066:A 0
7 uio_out[2] *4884:A 0
*RES
1 *4467:X *4884:A 10.755 
*END

*D_NET *232 0.000547345
*CONN
*I *4919:A I *D sky130_fd_sc_hd__dlygate4sd3_1
*I *4468:X O *D sky130_fd_sc_hd__mux2_1
*CAP
1 *4919:A 0.000202427
2 *4468:X 0.000202427
3 *4919:A *4469:A1 1.83847e-05
4 *4919:A *4667:D 9.98831e-05
5 *4919:A *258:116 2.42236e-05
*RES
1 *4468:X *4919:A 10.755 
*END

*D_NET *233 0.000335989
*CONN
*I *4926:A I *D sky130_fd_sc_hd__dlygate4sd3_1
*I *4469:X O *D sky130_fd_sc_hd__mux2_1
*CAP
1 *4926:A 7.62705e-05
2 *4469:X 7.62705e-05
3 *4926:A *4666:RESET_B 4.61744e-05
4 *4926:A *4736:A 2.11084e-05
5 *4926:A *5043:A 0.000116165
*RES
1 *4469:X *4926:A 9.03 
*END

*D_NET *234 0.00103194
*CONN
*I *4929:A I *D sky130_fd_sc_hd__dlygate4sd3_1
*I *4470:X O *D sky130_fd_sc_hd__mux2_1
*CAP
1 *4929:A 0.000203405
2 *4470:X 0.000203405
3 *4929:A *4470:A0 1.26173e-05
4 *4929:A *4470:A1 0.000298435
5 *4929:A *4470:S 1.56428e-05
6 *4929:A *258:59 0.000298435
*RES
1 *4470:X *4929:A 12.105 
*END

*D_NET *235 0.000678389
*CONN
*I *4915:A I *D sky130_fd_sc_hd__dlygate4sd3_1
*I *4471:X O *D sky130_fd_sc_hd__mux2_1
*CAP
1 *4915:A 0.000224826
2 *4471:X 0.000224826
3 *4915:A *4670:D 4.80285e-05
4 *4915:A *5068:A 6.28843e-05
5 *4915:A *258:70 0.000117825
*RES
1 *4471:X *4915:A 11.445 
*END

*D_NET *236 0.00284573
*CONN
*I *4901:A I *D sky130_fd_sc_hd__dlygate4sd3_1
*I *4472:X O *D sky130_fd_sc_hd__mux2_1
*CAP
1 *4901:A 0.000460199
2 *4472:X 0.000460199
3 *4901:A *4472:A1 0.000983023
4 *4901:A *4473:S 0.000808044
5 *4901:A *4662:RESET_B 3.18568e-05
6 *4901:A *4670:D 9.46859e-06
7 *4901:A *721:23 9.29427e-05
*RES
1 *4472:X *4901:A 20.955 
*END

*D_NET *237 0.000951943
*CONN
*I *4933:A I *D sky130_fd_sc_hd__dlygate4sd3_1
*I *4473:X O *D sky130_fd_sc_hd__mux2_1
*CAP
1 *4933:A 0.000270996
2 *4473:X 0.000270996
3 *4933:A *4472:A1 7.00889e-06
4 *4933:A *4671:D 0.000112685
5 *4933:A *4672:D 8.59856e-05
6 uio_oe[5] *4933:A 0.000102102
7 uio_out[4] *4933:A 3.05446e-05
8 uio_out[5] *4933:A 5.23288e-05
9 uio_out[7] *4933:A 1.92979e-05
*RES
1 *4473:X *4933:A 12.795 
*END

*D_NET *238 0.00092171
*CONN
*I *4931:A I *D sky130_fd_sc_hd__dlygate4sd3_1
*I *4474:X O *D sky130_fd_sc_hd__mux2_1
*CAP
1 *4931:A 0.00028587
2 *4474:X 0.00028587
3 *4931:A *4440:B 6.47516e-05
4 *4931:A *4474:A1 9.91257e-05
5 *4931:A *4673:D 0.000186092
*RES
1 *4474:X *4931:A 13.485 
*END

*D_NET *239 0.000771615
*CONN
*I *4674:D I *D sky130_fd_sc_hd__dfrtp_2
*I *4477:X O *D sky130_fd_sc_hd__a21bo_2
*CAP
1 *4674:D 0.000172143
2 *4477:X 0.000172143
3 *4674:D *4477:B1_N 8.86824e-05
4 *4674:D *627:37 0.000124895
5 *4674:D *1020:14 1.34503e-05
6 *4674:D *1027:12 0.000116165
7 *4674:D *1027:20 8.41359e-05
*RES
1 *4477:X *4674:D 11.1 
*END

*D_NET *240 0.000532431
*CONN
*I *4675:D I *D sky130_fd_sc_hd__dfrtp_2
*I *4479:X O *D sky130_fd_sc_hd__a21bo_2
*CAP
1 *4675:D 8.29949e-05
2 *4479:X 8.29949e-05
3 *4675:D *4392:A 9.20028e-05
4 *4675:D *4706:A 2.54458e-05
5 *4675:D *1004:46 7.88488e-05
6 *4675:D *1019:26 0.000160641
7 *4675:D *1026:16 9.50342e-06
*RES
1 *4479:X *4675:D 9.81 
*END

*D_NET *241 0.000630085
*CONN
*I *4676:D I *D sky130_fd_sc_hd__dfrtp_2
*I *4481:Y O *D sky130_fd_sc_hd__nor2_2
*CAP
1 *4676:D 8.18415e-05
2 *4481:Y 8.18415e-05
3 *4676:D *256:12 0.000118513
4 *4676:D *613:22 4.58257e-05
5 *4676:D *1011:8 0.0001249
6 *4676:D *1012:14 7.00889e-06
7 *4676:D *1026:22 5.16418e-05
8 *4676:D *1026:28 0.000118513
*RES
1 *4481:Y *4676:D 10.23 
*END

*D_NET *242 0.000623856
*CONN
*I *4684:D I *D sky130_fd_sc_hd__dfrtp_2
*I *4482:X O *D sky130_fd_sc_hd__mux2_1
*CAP
1 *4684:D 0.000208523
2 *4482:X 0.000208523
3 *4684:D *270:131 0
4 *4684:D *625:102 5.39961e-05
5 *4684:D *625:135 0.000152813
*RES
1 *4482:X *4684:D 11.13 
*END

*D_NET *243 0.000359301
*CONN
*I *4685:D I *D sky130_fd_sc_hd__dfrtp_2
*I *4483:X O *D sky130_fd_sc_hd__mux2_1
*CAP
1 *4685:D 0.000118942
2 *4483:X 0.000118942
3 *4685:D *4068:A1 8.65905e-05
4 *4685:D *984:16 3.48266e-05
*RES
1 *4483:X *4685:D 9.12 
*END

*D_NET *244 0.000484326
*CONN
*I *4686:D I *D sky130_fd_sc_hd__dfrtp_2
*I *4484:X O *D sky130_fd_sc_hd__mux2_1
*CAP
1 *4686:D 0.000146036
2 *4484:X 0.000146036
3 *4686:D *4484:S 7.60965e-05
4 *4686:D *268:101 0
5 *4686:D *696:18 0.000116158
*RES
1 *4484:X *4686:D 9.72 
*END

*D_NET *245 0.00100292
*CONN
*I *4687:D I *D sky130_fd_sc_hd__dfrtp_2
*I *4485:X O *D sky130_fd_sc_hd__mux2_1
*CAP
1 *4687:D 0.000450265
2 *4485:X 0.000450265
3 *4687:D *4067:A0 0
4 *4687:D *4485:A0 0
5 *4687:D *4687:CLK 3.00381e-05
6 *4687:D *993:56 0
7 *4557:D *4687:D 7.23533e-05
*RES
1 *4485:X *4687:D 13.785 
*END

*D_NET *246 0.000464198
*CONN
*I *4688:D I *D sky130_fd_sc_hd__dfrtp_2
*I *4486:X O *D sky130_fd_sc_hd__mux2_1
*CAP
1 *4688:D 0.000172412
2 *4486:X 0.000172412
3 *4688:D *4233:C1 0
4 *4688:D *4486:A1 6.6564e-05
5 *4688:D *270:56 1.92979e-05
6 *4688:D *1017:18 7.00889e-06
7 *4688:D *1025:42 2.6502e-05
*RES
1 *4486:X *4688:D 9.72 
*END

*D_NET *247 0.000325335
*CONN
*I *4689:D I *D sky130_fd_sc_hd__dfrtp_2
*I *4487:X O *D sky130_fd_sc_hd__mux2_1
*CAP
1 *4689:D 0.000159986
2 *4487:X 0.000159986
3 *4689:D *4487:A1 5.36384e-06
4 *4689:D *4517:CLK 0
5 *4689:D *360:16 0
*RES
1 *4487:X *4689:D 9.375 
*END

*D_NET *248 0.00599916
*CONN
*I *3966:A I *D sky130_fd_sc_hd__and2_2
*I *3989:D I *D sky130_fd_sc_hd__and4b_2
*I *4027:C I *D sky130_fd_sc_hd__nand4_2
*I *4476:A I *D sky130_fd_sc_hd__or3_2
*I *3969:A I *D sky130_fd_sc_hd__nor3_2
*I *3985:A1 I *D sky130_fd_sc_hd__o22a_2
*I *3963:Y O *D sky130_fd_sc_hd__inv_2
*CAP
1 *3966:A 0
2 *3989:D 8.86885e-05
3 *4027:C 0
4 *4476:A 0.000414716
5 *3969:A 0.000129282
6 *3985:A1 0
7 *3963:Y 0.000597206
8 *248:68 0.000215008
9 *248:47 0.000954377
10 *248:43 0.000672496
11 *248:12 0.000467333
12 *3969:A *3974:A 7.68218e-05
13 *3969:A *3985:A2 4.35432e-05
14 *3969:A *3985:B1 1.20741e-05
15 *3969:A *1050:22 0.000275553
16 *3989:D *3989:C 7.25465e-05
17 *3989:D *4027:D 0.000170124
18 *4476:A *4477:B1_N 4.52583e-05
19 *4476:A *4571:CLK 0.0001249
20 *4476:A *4706:A 6.71882e-05
21 *4476:A *627:20 0
22 *4476:A *627:22 0
23 *4476:A *627:37 8.65905e-05
24 *4476:A *627:118 1.19928e-05
25 *248:12 *3974:B 0
26 *248:12 *4618:CLK 0.00013521
27 *248:12 *1050:14 2.56077e-05
28 *248:43 *3963:A 5.34747e-05
29 *248:43 *3966:B 8.8266e-05
30 *248:43 *251:10 4.66742e-05
31 *248:43 *627:118 8.82557e-05
32 *248:43 *694:16 9.47454e-05
33 *248:47 *3965:A_N 7.60965e-05
34 *248:47 *3965:C 8.8266e-05
35 *248:47 *3966:B 0.000150455
36 *248:47 *4706:A 9.66106e-05
37 *248:47 *250:6 3.83194e-05
38 *248:47 *627:118 8.08654e-05
39 *248:68 *3965:A_N 0
40 *248:68 *3989:C 2.99518e-06
41 *248:68 *4027:D 4.55864e-06
42 *248:68 *1027:12 0.000155547
43 *4834:A *3969:A 6.54766e-05
44 *4935:A *4476:A 9.54399e-05
45 *4935:A *248:68 0
46 *5028:A *3989:D 8.65961e-05
*RES
1 *3963:Y *248:12 10.1 
2 *248:12 *3985:A1 1.6 
3 *248:12 *3969:A 5.515 
4 *3963:Y *248:43 10.745 
5 *248:43 *248:47 7.71 
6 *248:47 *4476:A 13.04 
7 *248:47 *248:68 4.4 
8 *248:68 *4027:C 3.6 
9 *248:68 *3989:D 6.54 
10 *248:43 *3966:A 1.6 
*END

*D_NET *249 0.00151273
*CONN
*I *4364:A1 I *D sky130_fd_sc_hd__a211o_2
*I *3964:Y O *D sky130_fd_sc_hd__inv_2
*CAP
1 *4364:A1 0.000368227
2 *3964:Y 0.000368227
3 *4364:A1 *4184:B1 0
4 *4364:A1 *4369:C1 0.000417063
5 *4364:A1 *280:51 0
6 *4364:A1 *296:12 0.000247581
7 *4364:A1 *998:63 0.000111634
*RES
1 *3964:Y *4364:A1 15.405 
*END

*D_NET *250 0.000719771
*CONN
*I *3986:B I *D sky130_fd_sc_hd__nor2_2
*I *3966:B I *D sky130_fd_sc_hd__and2_2
*I *3965:Y O *D sky130_fd_sc_hd__nand3b_2
*CAP
1 *3986:B 0
2 *3966:B 5.88424e-05
3 *3965:Y 2.76945e-05
4 *250:6 8.65369e-05
5 *3966:B *3965:C 0
6 *3966:B *4681:CLK 0
7 *3966:B *627:118 0.000187311
8 *250:6 *627:118 8.23457e-05
9 *248:43 *3966:B 8.8266e-05
10 *248:47 *3966:B 0.000150455
11 *248:47 *250:6 3.83194e-05
*RES
1 *3965:Y *250:6 2.395 
2 *250:6 *3966:B 4.6 
3 *250:6 *3986:B 1.6 
*END

*D_NET *251 0.00660631
*CONN
*I *3984:A2 I *D sky130_fd_sc_hd__a21bo_2
*I *3976:A2 I *D sky130_fd_sc_hd__a21bo_2
*I *3980:A2 I *D sky130_fd_sc_hd__a21bo_2
*I *3982:A2 I *D sky130_fd_sc_hd__a21bo_2
*I *3967:A I *D sky130_fd_sc_hd__inv_2
*I *3978:A2 I *D sky130_fd_sc_hd__a21bo_2
*I *3966:X O *D sky130_fd_sc_hd__and2_2
*CAP
1 *3984:A2 0.000177503
2 *3976:A2 8.47064e-05
3 *3980:A2 0.000128273
4 *3982:A2 0
5 *3967:A 0
6 *3978:A2 0
7 *3966:X 0.000840408
8 *251:58 0.000574219
9 *251:43 0.000667066
10 *251:30 0.000297477
11 *251:23 0.000244813
12 *251:10 0.00101453
13 *3976:A2 *3968:A 2.54523e-05
14 *3976:A2 *3980:A1 7.36562e-05
15 *3976:A2 *4466:S 0.000140844
16 *3976:A2 *712:51 3.05295e-05
17 *3980:A2 *3980:A1 0
18 *3980:A2 *3982:B1_N 0.000145376
19 *3980:A2 *4466:S 0
20 *3984:A2 *3984:B1_N 8.08153e-06
21 *3984:A2 *4466:S 0.000191093
22 *3984:A2 *4678:RESET_B 0.000121094
23 *3984:A2 *260:10 5.02217e-05
24 *3984:A2 *712:51 4.94404e-05
25 *3984:A2 *1051:25 6.23206e-05
26 *251:10 *3978:A1 4.82863e-05
27 *251:10 *3985:A2 2.75229e-05
28 *251:10 *4833:A 7.35813e-05
29 *251:10 *627:131 1.29866e-05
30 *251:10 *694:59 5.83121e-06
31 *251:23 *3978:A1 4.82919e-05
32 *251:23 *3978:B1_N 8.70068e-05
33 *251:23 *3979:A 5.42386e-05
34 *251:23 *4682:CLK 0
35 *251:23 *627:159 0
36 *251:23 *694:59 8.82557e-05
37 *251:23 *694:76 7.10578e-05
38 *251:30 *627:159 6.20088e-05
39 *251:43 *3982:A1 6.77417e-05
40 *251:43 *3982:B1_N 5.7344e-05
41 *251:43 *4466:S 0
42 *251:43 *4679:CLK 0.000123225
43 *251:43 *4682:CLK 7.21296e-06
44 *251:43 *627:159 0.000173382
45 *251:58 *3980:A1 1.23391e-05
46 *4681:D *251:10 0.000463165
47 *4681:D *251:23 8.48576e-05
48 *4682:D *3980:A2 0
49 *4682:D *251:58 6.42013e-05
50 *248:43 *251:10 4.66742e-05
*RES
1 *3966:X *251:10 13.465 
2 *251:10 *3978:A2 1.6 
3 *251:10 *251:23 8.665 
4 *251:23 *3967:A 1.6 
5 *251:23 *251:30 1.485 
6 *251:30 *3982:A2 1.6 
7 *251:30 *251:43 7.025 
8 *251:43 *3980:A2 6.51 
9 *251:43 *251:58 7.555 
10 *251:58 *3976:A2 6.51 
11 *251:58 *3984:A2 9.06 
*END

*D_NET *252 0.0021639
*CONN
*I *3974:A I *D sky130_fd_sc_hd__and2_2
*I *3985:B1 I *D sky130_fd_sc_hd__o22a_2
*I *3967:Y O *D sky130_fd_sc_hd__inv_2
*CAP
1 *3974:A 0.000130613
2 *3985:B1 2.17978e-05
3 *3967:Y 0.000600035
4 *252:10 0.000752446
5 *3985:B1 *711:79 2.03578e-05
6 *3985:B1 *1050:14 5.16348e-05
7 *3985:B1 *1050:22 9.50342e-06
8 *252:10 *4677:D 0.000122155
9 *252:10 *4677:SET_B 4.24575e-05
10 *252:10 *627:146 7.42809e-05
11 *252:10 *627:159 3.98489e-05
12 *252:10 *711:79 2.46089e-05
13 *252:10 *1050:14 6.38291e-05
14 *3969:A *3974:A 7.68218e-05
15 *3969:A *3985:B1 1.20741e-05
16 *4683:D *3974:A 0.000121437
*RES
1 *3967:Y *252:10 11.475 
2 *252:10 *3985:B1 4.32375 
3 *252:10 *3974:A 6.255 
*END

*D_NET *253 0.00266463
*CONN
*I *3969:C I *D sky130_fd_sc_hd__nor3_2
*I *3968:X O *D sky130_fd_sc_hd__or4_2
*CAP
1 *3969:C 0.000671326
2 *3968:X 0.000671326
3 *3969:C *3969:B 3.09233e-05
4 *3969:C *3976:A1 0.000122331
5 *3969:C *3976:B1_N 1.80164e-05
6 *3969:C *3979:B 0.000116151
7 *3969:C *3980:A1 0.000313852
8 *3969:C *3980:B1_N 2.1942e-05
9 *3969:C *3985:A2 5.4003e-05
10 *3969:C *4618:RESET_B 0.000541113
11 *3969:C *254:14 4.5783e-05
12 *3969:C *532:41 5.78594e-05
*RES
1 *3968:X *3969:C 20.325 
*END

*D_NET *254 0.00811317
*CONN
*I *4400:A2 I *D sky130_fd_sc_hd__a22o_2
*I *4742:A I *D sky130_fd_sc_hd__clkdlybuf4s25_1
*I *3969:Y O *D sky130_fd_sc_hd__nor3_2
*CAP
1 *4400:A2 0.00110094
2 *4742:A 0.000193579
3 *3969:Y 0.000346464
4 *254:14 0.00164099
5 *4400:A2 *4227:A1 0
6 *4400:A2 *4400:B1 0
7 *4400:A2 *4474:S 0.00213598
8 *4400:A2 *4619:CLK 0.000198934
9 *4400:A2 *4621:RESET_B 8.08439e-05
10 *4400:A2 *4680:CLK 7.21296e-06
11 *4400:A2 *258:16 7.5416e-05
12 *4400:A2 *261:37 2.24905e-05
13 *4400:A2 *261:39 5.84989e-05
14 *4400:A2 *261:43 0.000190601
15 *4400:A2 *261:49 0.000499096
16 *4400:A2 *532:41 0
17 *4400:A2 *580:21 7.81632e-05
18 *4400:A2 *629:79 7.00066e-05
19 *4400:A2 *836:39 0.000138799
20 *4400:A2 *980:54 9.27495e-05
21 *4742:A *4620:RESET_B 9.30977e-05
22 *4742:A *580:6 0.000111293
23 *4742:A *580:21 6.44715e-05
24 *4742:A *980:54 0.000411289
25 *254:14 *3979:A 0
26 *254:14 *3979:B 9.07342e-05
27 *254:14 *3985:A2 5.4003e-05
28 *254:14 *261:10 4.91145e-05
29 *254:14 *579:10 2.66935e-05
30 *254:14 *836:39 2.06083e-05
31 *3969:C *254:14 4.5783e-05
32 *4621:D *4400:A2 0.000116158
33 *4623:D *4400:A2 3.50571e-05
34 *4906:A *4400:A2 6.40939e-05
*RES
1 *3969:Y *254:14 12.125 
2 *254:14 *4742:A 8.275 
3 *254:14 *4400:A2 39.575 
*END

*D_NET *255 0.0173782
*CONN
*I *4478:A I *D sky130_fd_sc_hd__or4_2
*I *4480:A2 I *D sky130_fd_sc_hd__a21oi_2
*I *3972:B I *D sky130_fd_sc_hd__nand2_2
*I *4365:A2 I *D sky130_fd_sc_hd__a221o_2
*I *4362:B2 I *D sky130_fd_sc_hd__a221o_2
*I *3970:X O *D sky130_fd_sc_hd__and2_2
*CAP
1 *4478:A 0.000119836
2 *4480:A2 0
3 *3972:B 0
4 *4365:A2 7.96789e-06
5 *4362:B2 0.000546617
6 *3970:X 0
7 *255:61 0.000698957
8 *255:24 0.000948721
9 *255:18 0.00448846
10 *255:4 0.00467345
11 *4362:B2 *4026:S 0
12 *4362:B2 *4119:S 3.52139e-07
13 *4362:B2 *4362:A2 7.67681e-05
14 *4362:B2 *4362:C1 3.12639e-05
15 *4362:B2 *4365:B2 0.000113571
16 *4362:B2 *4366:C1 3.86607e-05
17 *4362:B2 *4497:RESET_B 3.23663e-05
18 *4362:B2 *4521:RESET_B 8.26602e-05
19 *4362:B2 *4882:A 0.000318091
20 *4362:B2 *661:10 0.000116853
21 *4362:B2 *947:26 0
22 *4365:A2 *611:23 6.8725e-06
23 *4478:A *4392:A 1.85674e-05
24 *4478:A *4478:C 5.94962e-05
25 *4478:A *4479:B1_N 0.000389572
26 *4478:A *4675:RESET_B 8.49205e-05
27 *4478:A *4729:A 0.00010877
28 *4478:A *706:6 4.82863e-05
29 *4478:A *980:12 7.01481e-05
30 *4478:A *1029:45 1.60203e-05
31 *255:18 *4149:A1 4.0129e-05
32 *255:18 *4149:A2 0.000162212
33 *255:18 *4243:B1 0
34 *255:18 *4611:CLK 0.000105849
35 *255:18 *4676:CLK 0.000159528
36 *255:18 *256:12 0
37 *255:18 *289:18 3.82741e-05
38 *255:18 *290:12 0.00016698
39 *255:18 *305:16 0
40 *255:18 *314:25 0
41 *255:18 *314:27 0
42 *255:18 *360:16 0.00117776
43 *255:18 *611:49 0.000263566
44 *255:18 *969:33 0.000112905
45 *255:18 *1026:36 0.000342254
46 *255:24 *4026:S 0
47 *255:24 *4741:A 0.000429658
48 *255:24 *4832:A 0.000174526
49 *255:24 *661:10 8.53113e-06
50 *255:61 *4676:RESET_B 0.00021007
51 *255:61 *4706:A 1.34361e-05
52 *255:61 *4729:A 0.000377295
53 *255:61 *1026:28 0.000160641
54 *3:30 *255:18 0.000337384
*RES
1 *3970:X *255:4 1.6 
2 *255:4 *255:18 21.7545 
3 *255:18 *255:24 10.085 
4 *255:24 *4362:B2 14.445 
5 *255:24 *4365:A2 3.72375 
6 *255:18 *3972:B 1.6 
7 *255:4 *255:61 13.63 
8 *255:61 *4480:A2 1.6 
9 *255:61 *4478:A 6.565 
*END

*D_NET *256 0.0168426
*CONN
*I *4475:A2 I *D sky130_fd_sc_hd__a21o_2
*I *3973:B I *D sky130_fd_sc_hd__nand2_2
*I *4364:A2 I *D sky130_fd_sc_hd__a211o_2
*I *4365:C1 I *D sky130_fd_sc_hd__a221o_2
*I *3971:X O *D sky130_fd_sc_hd__and3_2
*CAP
1 *4475:A2 0.000181366
2 *3973:B 2.32169e-05
3 *4364:A2 0
4 *4365:C1 0.00045298
5 *3971:X 3.69588e-05
6 *256:44 0.0013193
7 *256:18 0.00262744
8 *256:12 0.0027975
9 *256:6 0.00177472
10 *3973:B *980:12 2.75229e-05
11 *4365:C1 *4362:A2 0.000238137
12 *4365:C1 *4364:B1 4.00541e-06
13 *4365:C1 *4364:C1 0.000122337
14 *4365:C1 *4365:B2 4.43871e-06
15 *4365:C1 *4832:A 0
16 *4365:C1 *289:20 0.000697115
17 *4365:C1 *289:37 5.68633e-05
18 *4365:C1 *381:24 0.00167318
19 *4475:A2 *3974:B 0
20 *4475:A2 *4475:A1 7.35729e-05
21 *4475:A2 *4478:D 0
22 *4475:A2 *258:16 0
23 *4475:A2 *836:39 5.07419e-05
24 *256:6 *1011:8 4.66108e-05
25 *256:12 *4217:B 0
26 *256:12 *4611:CLK 0
27 *256:12 *4676:CLK 0
28 *256:12 *362:10 0.000122474
29 *256:12 *613:14 0
30 *256:12 *1026:28 2.50049e-05
31 *256:18 *4238:B 0.000277223
32 *256:18 *4289:A 4.99619e-05
33 *256:18 *4289:D_N 4.82863e-05
34 *256:18 *4378:A 0.000454101
35 *256:18 *4378:B 0.000271694
36 *256:18 *4697:A 0.00031744
37 *256:18 *5057:A 8.57237e-05
38 *256:18 *289:37 0.00015896
39 *256:18 *315:31 3.09552e-05
40 *256:18 *360:44 0.00028192
41 *256:18 *381:24 0.000417327
42 *256:18 *381:32 5.80664e-05
43 *256:18 *381:39 0.000105451
44 *256:18 *381:54 0.00073174
45 *256:18 *392:31 0.00015896
46 *256:18 *432:10 1.12459e-05
47 *256:18 *858:55 0.000111865
48 *256:18 *858:64 9.91257e-05
49 *256:44 *4481:A 0.000424626
50 *256:44 *258:16 0
51 *256:44 *1011:8 0.000273872
52 *4676:D *256:12 0.000118513
53 *255:18 *256:12 0
*RES
1 *3971:X *256:6 2.05 
2 *256:6 *256:12 15.325 
3 *256:12 *256:18 41.97 
4 *256:18 *4365:C1 23.39 
5 *256:18 *4364:A2 1.6 
6 *256:6 *256:44 16.835 
7 *256:44 *3973:B 4.05 
8 *256:44 *4475:A2 7.14 
*END

*D_NET *257 0.0060665
*CONN
*I *4740:A I *D sky130_fd_sc_hd__clkdlybuf4s25_1
*I *4741:A I *D sky130_fd_sc_hd__clkdlybuf4s25_1
*I *3972:Y O *D sky130_fd_sc_hd__nand2_2
*CAP
1 *4740:A 0.0018605
2 *4741:A 0.000391269
3 *3972:Y 0
4 *257:4 0.00225177
5 *4740:A *4096:A0 3.0286e-05
6 *4740:A *4096:S 2.75145e-05
7 *4740:A *4148:B1 2.18287e-05
8 *4740:A *4610:CLK 9.27495e-05
9 *4740:A *4610:RESET_B 5.30673e-05
10 *4740:A *700:10 3.41952e-05
11 *4740:A *701:14 0.000459372
12 *4740:A *969:33 6.10352e-05
13 *4740:A *983:20 0
14 *4740:A *1005:46 0.000159462
15 *4951:A *4740:A 0.000193801
16 *255:24 *4741:A 0.000429658
*RES
1 *3972:Y *257:4 1.6 
2 *257:4 *4741:A 8.89 
3 *257:4 *4740:A 28.79 
*END

*D_NET *258 0.0257521
*CONN
*I *3974:B I *D sky130_fd_sc_hd__and2_2
*I *4468:S I *D sky130_fd_sc_hd__mux2_1
*I *4467:S I *D sky130_fd_sc_hd__mux2_1
*I *4469:S I *D sky130_fd_sc_hd__mux2_1
*I *4470:S I *D sky130_fd_sc_hd__mux2_1
*I *4472:S I *D sky130_fd_sc_hd__mux2_1
*I *4473:S I *D sky130_fd_sc_hd__mux2_1
*I *4471:S I *D sky130_fd_sc_hd__mux2_1
*I *4474:S I *D sky130_fd_sc_hd__mux2_1
*I *3973:Y O *D sky130_fd_sc_hd__nand2_2
*CAP
1 *3974:B 0.000474846
2 *4468:S 0
3 *4467:S 0.000315896
4 *4469:S 0
5 *4470:S 8.91084e-05
6 *4472:S 0
7 *4473:S 0.000310094
8 *4471:S 0.000118643
9 *4474:S 0.00127651
10 *3973:Y 0
11 *258:116 0.000607632
12 *258:70 0.000385108
13 *258:59 0.000612986
14 *258:53 0.000857198
15 *258:45 0.000434681
16 *258:39 0.00350725
17 *258:16 0.00524039
18 *258:6 0.00130913
19 *3974:B *4475:A1 0
20 *3974:B *4618:CLK 0
21 *3974:B *532:18 4.61701e-06
22 *3974:B *836:8 0
23 *3974:B *1005:8 4.82919e-05
24 *4467:S *4468:A1 0
25 *4467:S *4659:CLK 0
26 *4467:S *4666:D 0
27 *4467:S *4666:RESET_B 0.000234115
28 *4467:S *4667:D 0
29 *4467:S *628:129 0
30 *4467:S *758:8 0
31 *4470:S *4470:A0 2.75229e-05
32 *4470:S *4661:CLK 0
33 *4471:S *4471:A0 4.80285e-05
34 *4473:S *4472:A1 3.48914e-05
35 *4473:S *5068:A 0.000190927
36 *4473:S *721:23 0.000376371
37 *4474:S *4197:B1 0
38 *4474:S *4263:A 0
39 *4474:S *4306:A0 0.000185069
40 *4474:S *4440:A 0
41 *4474:S *4474:A0 0
42 *4474:S *4624:RESET_B 0
43 *4474:S *4665:RESET_B 0.000130685
44 *4474:S *5018:A 0
45 *4474:S *372:12 0
46 *4474:S *617:99 8.97486e-05
47 *4474:S *629:70 0.000162325
48 *4474:S *629:79 0.000680678
49 *258:16 *4171:S 0.000272565
50 *258:16 *629:79 6.75724e-05
51 *258:39 *4405:A 6.26945e-05
52 *258:39 *4405:B 3.09179e-05
53 *258:39 *4660:D 0.0001249
54 *258:39 *4812:A 0.000201508
55 *258:39 *580:29 0.000203178
56 *258:39 *717:10 0.000161529
57 *258:45 *4469:A1 1.73877e-05
58 *258:45 *4668:D 6.28687e-05
59 *258:45 *717:10 0
60 *258:45 *1122:14 1.61831e-05
61 *258:53 *4735:A 0
62 *258:53 *4736:A 0.000114912
63 *258:53 *5043:A 0.00034224
64 *258:53 *716:10 0.000154481
65 *258:53 *721:100 0.000163204
66 *258:53 *769:8 0.000109346
67 *258:53 *1122:12 0.000163199
68 *258:53 *1122:14 0.000124007
69 *258:59 *4470:A1 0.00010141
70 *258:59 *4735:A 0
71 *258:59 *4914:A 0
72 *258:59 *5068:A 2.42236e-05
73 *258:59 *5069:A 0
74 *258:59 *716:10 0.000899595
75 *258:59 *780:12 2.84224e-05
76 *258:70 *4472:A0 1.34361e-05
77 *258:70 *4670:RESET_B 5.93844e-05
78 *258:70 *5068:A 3.85797e-05
79 *258:70 *715:62 8.08153e-06
80 *258:116 *4468:A0 9.20116e-05
81 *258:116 *4468:A1 1.7386e-05
82 *258:116 *4469:A1 5.4239e-05
83 *258:116 *4666:RESET_B 0
84 *258:116 *4667:D 9.54399e-05
85 *4400:A2 *4474:S 0.00213598
86 *4400:A2 *258:16 7.5416e-05
87 *4475:A2 *3974:B 0
88 *4475:A2 *258:16 0
89 *4619:D *258:16 0.000427876
90 *4633:D *4474:S 6.97199e-05
91 *4683:D *3974:B 5.30673e-05
92 *4813:A *258:45 0.000139646
93 *4813:A *258:116 8.53113e-06
94 *4901:A *4473:S 0.000808044
95 *4915:A *258:70 0.000117825
96 *4919:A *258:116 2.42236e-05
97 *4929:A *4470:S 1.56428e-05
98 *4929:A *258:59 0.000298435
99 *248:12 *3974:B 0
100 *256:44 *258:16 0
*RES
1 *3973:Y *258:6 3.6 
2 *258:6 *258:16 19.285 
3 *258:16 *4474:S 38.43 
4 *258:16 *258:39 48.73 
5 *258:39 *258:45 4.34 
6 *258:45 *258:53 11.885 
7 *258:53 *258:59 14.135 
8 *258:59 *4471:S 3.43 
9 *258:59 *258:70 4.4 
10 *258:70 *4473:S 14.655 
11 *258:70 *4472:S 3.6 
12 *258:53 *4470:S 5.1 
13 *258:45 *4469:S 1.6 
14 *258:39 *258:116 7.775 
15 *258:116 *4467:S 12.08 
16 *258:116 *4468:S 1.6 
17 *258:6 *3974:B 11.655 
*END

*D_NET *259 0.0197608
*CONN
*I *4443:S I *D sky130_fd_sc_hd__mux2_1
*I *4446:S I *D sky130_fd_sc_hd__mux2_1
*I *4445:S I *D sky130_fd_sc_hd__mux2_1
*I *4447:S I *D sky130_fd_sc_hd__mux2_1
*I *4448:S I *D sky130_fd_sc_hd__mux2_1
*I *4450:S I *D sky130_fd_sc_hd__mux2_1
*I *4449:S I *D sky130_fd_sc_hd__mux2_1
*I *4444:S I *D sky130_fd_sc_hd__mux2_1
*I *3976:B1_N I *D sky130_fd_sc_hd__a21bo_2
*I *3975:Y O *D sky130_fd_sc_hd__nand2_2
*CAP
1 *4443:S 0.000302613
2 *4446:S 0
3 *4445:S 0.000172066
4 *4447:S 4.13562e-05
5 *4448:S 0
6 *4450:S 0.00119244
7 *4449:S 0.000388567
8 *4444:S 2.08101e-05
9 *3976:B1_N 0.000724185
10 *3975:Y 9.41245e-05
11 *259:60 0.00169197
12 *259:58 0.000546868
13 *259:56 0.00104391
14 *259:54 0.000972014
15 *259:48 0.000797691
16 *259:35 0.000817887
17 *259:29 0.00185108
18 *259:8 0.0021341
19 *3976:B1_N *3976:A1 3.09088e-05
20 *3976:B1_N *3980:A1 4.19968e-05
21 *3976:B1_N *3984:B1_N 0.000111439
22 *3976:B1_N *4393:B1 0
23 *3976:B1_N *4408:A 0
24 *3976:B1_N *4680:RESET_B 0.000493437
25 *3976:B1_N *263:8 3.68682e-05
26 *4443:S *4402:A1 0.000163012
27 *4443:S *4443:A0 0.000387168
28 *4443:S *4443:A1 3.00381e-05
29 *4443:S *4634:RESET_B 0.000135312
30 *4443:S *720:101 1.71013e-05
31 *4445:S *4445:A1 0.000113247
32 *4447:S *4447:A1 3.45588e-05
33 *4449:S *4449:A0 0
34 *4449:S *4828:A 5.20968e-05
35 *4449:S *601:12 0
36 *4449:S *616:128 0
37 *4449:S *714:14 0.000101325
38 *4449:S *722:32 0.000212071
39 *4450:S *4438:A0 6.52265e-05
40 *4450:S *4438:A1 0.000184234
41 *4450:S *4442:S 0.0001249
42 *4450:S *4450:A0 4.82863e-05
43 *4450:S *4632:RESET_B 0.000165657
44 *4450:S *4828:A 8.49205e-05
45 *4450:S *5006:A 1.88189e-05
46 *4450:S *577:6 6.22066e-05
47 *259:8 *3975:B 0.000118527
48 *259:8 *3984:B1_N 2.24992e-05
49 *259:8 *4393:B1 0
50 *259:29 *4393:A1 0.000158993
51 *259:29 *4393:B1 0.000160641
52 *259:29 *4401:A 3.45588e-05
53 *259:29 *4402:A0 0.000348699
54 *259:29 *4402:A1 0.000394699
55 *259:29 *4888:A 8.31173e-05
56 *259:29 *628:42 1.60203e-05
57 *259:35 *4651:CLK 0
58 *259:35 *4707:A 0.000228818
59 *259:35 *4731:A 0.000383705
60 *259:35 *263:39 2.75229e-05
61 *259:35 *720:101 3.31204e-05
62 *259:48 *4446:A1 1.70935e-05
63 *259:48 *4643:RESET_B 0
64 *259:48 *4651:CLK 7.44453e-05
65 *259:48 *4707:A 0
66 *259:48 *263:39 0.000138799
67 *259:54 *4415:A1 0.000200751
68 *259:54 *4446:A1 0.000110315
69 *259:54 *4861:A 7.78102e-05
70 *259:54 *837:10 0
71 *259:56 *4398:A1 0
72 *259:56 *4638:RESET_B 0
73 *259:56 *4695:A 0
74 *259:56 *4838:A 0
75 *259:56 *4861:A 0.000293726
76 *259:56 *4891:A 0
77 *259:56 *263:51 0
78 *259:56 *714:62 0
79 *259:56 *714:76 0
80 *259:56 *777:8 0
81 *259:56 *837:10 0
82 *259:58 *4398:A1 0
83 *259:58 *4448:A0 0.000148783
84 *259:58 *4639:RESET_B 0.000127441
85 *259:58 *263:61 0
86 *259:58 *714:10 6.30024e-05
87 *259:58 *714:36 0.000105949
88 *259:58 *714:62 0
89 *259:58 *826:10 9.73988e-05
90 *259:60 *4448:A0 1.89685e-05
91 *259:60 *4828:A 1.07797e-05
92 *259:60 *714:10 8.53255e-05
93 *259:60 *714:14 3.9442e-05
94 *3969:C *3976:B1_N 1.80164e-05
95 *4640:D *4450:S 4.66108e-05
96 *4644:D *259:54 0.000269945
97 *4650:D *4443:S 0
98 *4651:D *259:48 6.47516e-05
99 *4656:D *4449:S 0
100 *4793:A *4450:S 0.000229536
101 *4810:A *259:48 0
102 *4829:A *4449:S 4.43871e-06
*RES
1 *3975:Y *259:8 5.745 
2 *259:8 *3976:B1_N 14.9475 
3 *259:8 *259:29 21.355 
4 *259:29 *259:35 8.42 
5 *259:35 *4444:S 1.96 
6 *259:35 *259:48 12.185 
7 *259:48 *259:54 7.035 
8 *259:54 *259:56 10.05 
9 *259:56 *259:58 10.05 
10 *259:58 *259:60 2.655 
11 *259:60 *4449:S 10.485 
12 *259:60 *4450:S 22.965 
13 *259:58 *4448:S 3.6 
14 *259:56 *4447:S 4.395 
15 *259:54 *4445:S 6.39 
16 *259:48 *4446:S 3.6 
17 *259:29 *4443:S 11.235 
*END

*D_NET *260 0.0220333
*CONN
*I *4460:S I *D sky130_fd_sc_hd__mux2_1
*I *4461:S I *D sky130_fd_sc_hd__mux2_1
*I *4462:S I *D sky130_fd_sc_hd__mux2_1
*I *4464:S I *D sky130_fd_sc_hd__mux2_1
*I *4465:S I *D sky130_fd_sc_hd__mux2_1
*I *4463:S I *D sky130_fd_sc_hd__mux2_1
*I *4459:S I *D sky130_fd_sc_hd__mux2_1
*I *3978:B1_N I *D sky130_fd_sc_hd__a21bo_2
*I *4466:S I *D sky130_fd_sc_hd__mux2_1
*I *3977:Y O *D sky130_fd_sc_hd__nand2_2
*CAP
1 *4460:S 0
2 *4461:S 2.83157e-05
3 *4462:S 0.00010564
4 *4464:S 0
5 *4465:S 0.000588407
6 *4463:S 4.17728e-05
7 *4459:S 0
8 *3978:B1_N 0.000465291
9 *4466:S 0.00223413
10 *3977:Y 0.00229044
11 *260:93 0.000877813
12 *260:80 0.000679319
13 *260:72 0.00079594
14 *260:70 0.000802212
15 *260:68 0.000879377
16 *260:55 0.00262959
17 *260:10 0.00280791
18 *3978:B1_N *4678:CLK 0.000129274
19 *3978:B1_N *694:76 0.000123091
20 *4461:S *4395:A1 1.83756e-05
21 *4461:S *1122:14 3.64998e-06
22 *4462:S *4445:A1 1.91597e-05
23 *4462:S *1123:12 0.000123225
24 *4463:S *4463:A0 2.16833e-05
25 *4463:S *4670:CLK 4.66108e-05
26 *4465:S *4397:A1 0
27 *4465:S *4399:A1 4.82863e-05
28 *4465:S *4464:A0 0.000168819
29 *4465:S *4663:D 4.23341e-05
30 *4465:S *4672:D 0
31 *4465:S *616:101 0
32 *4465:S *1126:16 0.000159867
33 *4466:S *3980:A1 0.000114492
34 *4466:S *3981:B 0
35 *4466:S *3982:B1_N 0
36 *4466:S *3984:B1_N 0.000181376
37 *4466:S *4196:A 0
38 *4466:S *4264:A0 0
39 *4466:S *4400:B1 0
40 *4466:S *4420:B1 9.32134e-05
41 *4466:S *4466:A0 0
42 *4466:S *4622:CLK 0
43 *4466:S *4622:RESET_B 6.74079e-05
44 *4466:S *4637:CLK 3.05373e-05
45 *4466:S *4680:RESET_B 5.13029e-05
46 *4466:S *4981:A 0.000328067
47 *4466:S *5009:A 0.000409125
48 *4466:S *262:28 0
49 *4466:S *532:41 0
50 *4466:S *583:14 0
51 *4466:S *615:122 5.83373e-05
52 *4466:S *709:47 0
53 *260:10 *3984:A1 4.92062e-05
54 *260:10 *3984:B1_N 8.69088e-05
55 *260:55 *3984:A1 8.8266e-05
56 *260:55 *4393:B2 0.000354725
57 *260:55 *4451:A0 0
58 *260:55 *4451:A1 4.82863e-05
59 *260:55 *4451:S 9.428e-05
60 *260:55 *4459:A1 3.04982e-05
61 *260:55 *4650:CLK 0.000169467
62 *260:55 *4658:CLK 0.000164686
63 *260:55 *4859:A 0
64 *260:55 *4893:A 9.70988e-05
65 *260:55 *5010:A 0.0002318
66 *260:55 *628:50 8.65961e-05
67 *260:68 *4451:A1 6.77501e-05
68 *260:68 *4659:D 0
69 *260:68 *4830:A 0.000273878
70 *260:68 *628:129 0
71 *260:68 *717:73 0
72 *260:68 *768:6 2.30292e-05
73 *260:70 *4460:A0 3.86607e-05
74 *260:70 *4659:D 0
75 *260:70 *4812:A 2.42236e-05
76 *260:70 *717:54 0
77 *260:70 *717:64 0
78 *260:70 *717:73 0
79 *260:70 *749:8 0.000118527
80 *260:70 *757:10 0.000101317
81 *260:72 *4453:A0 7.76237e-05
82 *260:72 *4453:A1 0.00035825
83 *260:72 *4857:A 0
84 *260:72 *717:47 8.92379e-05
85 *260:72 *717:54 0
86 *260:72 *749:8 2.14129e-05
87 *260:72 *1123:12 5.21046e-05
88 *260:80 *4453:A0 4.24292e-06
89 *260:80 *4662:D 0.000136884
90 *260:80 *4670:CLK 2.92496e-05
91 *260:80 *4857:A 0
92 *260:80 *5012:A 7.97165e-05
93 *260:80 *799:8 5.42473e-05
94 *260:80 *1123:12 1.52184e-05
95 *260:93 *4397:A1 0
96 *260:93 *4455:A1 3.86607e-05
97 *260:93 *4463:A1 0
98 *260:93 *4662:D 0.000203501
99 *260:93 *4670:CLK 0.000120655
100 *260:93 *4897:A 0.000127181
101 *3976:A2 *4466:S 0.000140844
102 *3980:A2 *4466:S 0
103 *3984:A2 *4466:S 0.000191093
104 *3984:A2 *260:10 5.02217e-05
105 *4637:D *4466:S 0.000120186
106 *4678:D *3978:B1_N 0.000124895
107 *4681:D *3978:B1_N 8.86824e-05
108 *4682:D *4466:S 0
109 *4821:A *260:68 4.70343e-05
110 *4831:A *260:68 0.000161529
111 *4898:A *260:80 0
112 *251:23 *3978:B1_N 8.70068e-05
113 *251:43 *4466:S 0
*RES
1 *3977:Y *260:10 5.865 
2 *260:10 *4466:S 47.055 
3 *260:10 *3978:B1_N 11.6737 
4 *3977:Y *260:55 38.87 
5 *260:55 *4459:S 1.6 
6 *260:55 *260:68 10.7 
7 *260:68 *260:70 8.265 
8 *260:70 *260:72 8.01 
9 *260:72 *260:80 9.29 
10 *260:80 *4463:S 2.395 
11 *260:80 *260:93 9.11 
12 *260:93 *4465:S 14.73 
13 *260:93 *4464:S 3.6 
14 *260:72 *4462:S 5.445 
15 *260:70 *4461:S 4.05 
16 *260:68 *4460:S 3.6 
*END

*D_NET *261 0.0134291
*CONN
*I *3980:B1_N I *D sky130_fd_sc_hd__a21bo_2
*I *4151:S I *D sky130_fd_sc_hd__mux2_1
*I *4171:S I *D sky130_fd_sc_hd__mux2_1
*I *4227:S I *D sky130_fd_sc_hd__mux2_1
*I *4196:B I *D sky130_fd_sc_hd__nand2_2
*I *4264:S I *D sky130_fd_sc_hd__mux2_1
*I *4306:S I *D sky130_fd_sc_hd__mux2_1
*I *4391:S I *D sky130_fd_sc_hd__mux2_1
*I *4356:S I *D sky130_fd_sc_hd__mux2_1
*I *4197:A1 I *D sky130_fd_sc_hd__o31ai_2
*I *3979:Y O *D sky130_fd_sc_hd__nand2_2
*CAP
1 *3980:B1_N 0.000139412
2 *4151:S 0.000177797
3 *4171:S 0.000400255
4 *4227:S 5.78966e-05
5 *4196:B 0
6 *4264:S 0.000155377
7 *4306:S 2.08101e-05
8 *4391:S 0.000233377
9 *4356:S 0.000256423
10 *4197:A1 0.000238737
11 *3979:Y 0.000178403
12 *261:55 0.00111705
13 *261:49 0.000878027
14 *261:43 0.000549273
15 *261:39 0.000233669
16 *261:37 0.000552492
17 *261:18 0.0010688
18 *261:10 0.000993289
19 *261:6 0.000404612
20 *3980:B1_N *3979:A 7.55313e-05
21 *3980:B1_N *4618:RESET_B 0.000238137
22 *3980:B1_N *532:41 0.000158218
23 *4151:S *3979:B 0.000236355
24 *4151:S *4151:A1 0.000351268
25 *4151:S *836:39 0.000653462
26 *4197:A1 *4197:A3 3.45588e-05
27 *4227:S *4227:A0 5.83121e-06
28 *4227:S *629:70 5.05521e-05
29 *4264:S *4264:A1 4.99619e-05
30 *4356:S *4356:A1 5.07419e-05
31 *4356:S *4440:A 0.000231557
32 *4356:S *4625:RESET_B 0.000143508
33 *4356:S *4665:D 5.36524e-05
34 *4356:S *5018:A 0.000354785
35 *4356:S *617:91 0
36 *4356:S *722:42 0.00012657
37 *4391:S *617:81 0.00016063
38 *261:6 *579:27 4.40325e-06
39 *261:10 *4620:RESET_B 4.40006e-05
40 *261:10 *4680:CLK 0
41 *261:10 *629:79 0
42 *261:10 *836:39 8.53113e-06
43 *261:10 *980:54 3.67779e-05
44 *261:18 *4197:A3 7.5416e-05
45 *261:18 *4197:B1 7.70828e-05
46 *261:18 *4620:RESET_B 0.000236012
47 *261:18 *629:79 0
48 *261:37 *4227:A1 0.000116158
49 *261:37 *4400:B1 8.09021e-06
50 *261:37 *4621:RESET_B 1.4389e-05
51 *261:39 *4400:B1 6.14689e-05
52 *261:43 *4400:B1 0.000160194
53 *261:49 *4306:A0 4.02502e-05
54 *261:49 *4400:B1 0
55 *261:55 *4305:B 1.71013e-05
56 *261:55 *4306:A0 2.49909e-05
57 *261:55 *4307:A1 0
58 *261:55 *4665:D 0.000231943
59 *261:55 *5018:A 0.000114649
60 *3969:C *3980:B1_N 2.1942e-05
61 *4400:A2 *261:37 2.24905e-05
62 *4400:A2 *261:39 5.84989e-05
63 *4400:A2 *261:43 0.000190601
64 *4400:A2 *261:49 0.000499096
65 *4619:D *261:10 9.30787e-05
66 *4620:D *4197:A1 8.73389e-06
67 *4620:D *261:18 6.28843e-05
68 *4620:D *261:37 2.65814e-06
69 *4621:D *261:37 3.67779e-05
70 *4622:D *4264:S 8.65905e-05
71 *4622:D *261:49 0.000121605
72 *4624:D *4356:S 0
73 *4680:D *3980:B1_N 0
74 *254:14 *261:10 4.91145e-05
75 *258:16 *4171:S 0.000272565
*RES
1 *3979:Y *261:6 2.05 
2 *261:6 *261:10 5.93 
3 *261:10 *261:18 11.075 
4 *261:18 *4197:A1 4.855 
5 *261:18 *261:37 7.535 
6 *261:37 *261:39 1.89 
7 *261:39 *261:43 4.89 
8 *261:43 *261:49 8.51 
9 *261:49 *261:55 13.22 
10 *261:55 *4356:S 11.73 
11 *261:55 *4391:S 7.185 
12 *261:49 *4306:S 1.96 
13 *261:43 *4264:S 6.12 
14 *261:39 *4196:B 3.6 
15 *261:37 *4227:S 4.755 
16 *261:10 *4171:S 10.275 
17 *261:6 *4151:S 8.635 
18 *3979:Y *3980:B1_N 11.3588 
*END

*D_NET *262 0.0180335
*CONN
*I *4426:S I *D sky130_fd_sc_hd__mux2_1
*I *4432:S I *D sky130_fd_sc_hd__mux2_1
*I *4438:S I *D sky130_fd_sc_hd__mux2_1
*I *4442:S I *D sky130_fd_sc_hd__mux2_1
*I *4402:S I *D sky130_fd_sc_hd__mux2_1
*I *4409:A2 I *D sky130_fd_sc_hd__a22o_2
*I *4408:A I *D sky130_fd_sc_hd__nor2_2
*I *4415:S I *D sky130_fd_sc_hd__mux2_1
*I *4416:B I *D sky130_fd_sc_hd__and2_2
*I *3982:B1_N I *D sky130_fd_sc_hd__a21bo_2
*I *3981:Y O *D sky130_fd_sc_hd__nand2_2
*CAP
1 *4426:S 2.51724e-05
2 *4432:S 0
3 *4438:S 0
4 *4442:S 0.000776073
5 *4402:S 0.000193586
6 *4409:A2 2.36261e-05
7 *4408:A 0.000645555
8 *4415:S 2.08101e-05
9 *4416:B 0.000107977
10 *3982:B1_N 0.000464158
11 *3981:Y 0.00076484
12 *262:111 0.00120353
13 *262:107 0.000890346
14 *262:105 0.00149645
15 *262:64 0.000705124
16 *262:60 0.00100462
17 *262:56 0.00184095
18 *262:47 0.000909334
19 *262:28 0.00123971
20 *3982:B1_N *3982:A1 6.03947e-06
21 *3982:B1_N *4618:RESET_B 0
22 *3982:B1_N *4679:CLK 1.12643e-05
23 *3982:B1_N *4680:CLK 0
24 *3982:B1_N *4682:CLK 0.000162318
25 *3982:B1_N *532:41 0.000108568
26 *3982:B1_N *580:21 0.000174577
27 *3982:B1_N *836:39 0.000250093
28 *4402:S *4393:A1 0.0001249
29 *4402:S *4626:RESET_B 7.09999e-05
30 *4402:S *5041:A 2.59981e-05
31 *4402:S *628:38 5.12017e-06
32 *4402:S *628:42 0.000239813
33 *4408:A *4393:B1 0
34 *4408:A *4407:A1_N 0.000126903
35 *4408:A *4407:B1 8.49205e-05
36 *4408:A *4409:A1 1.47256e-05
37 *4408:A *4409:B1 8.53569e-05
38 *4408:A *4409:B2 9.07793e-05
39 *4408:A *4627:RESET_B 0.000247671
40 *4409:A2 *4409:A1 1.2818e-05
41 *4416:B *4420:B1 8.6311e-05
42 *4416:B *4458:S 0
43 *4416:B *4874:A 0
44 *4416:B *5009:A 1.01661e-05
45 *4426:S *4426:A1 5.07419e-05
46 *4426:S *615:59 0.000124895
47 *4442:S *4438:A0 6.48111e-05
48 *4442:S *4438:A1 4.82863e-05
49 *4442:S *4632:RESET_B 1.60203e-05
50 *4442:S *722:32 0.000665398
51 *262:28 *3981:B 2.97561e-05
52 *262:28 *4420:B1 9.76522e-05
53 *262:28 *4458:S 0
54 *262:28 *4682:RESET_B 0.000194166
55 *262:47 *4413:A2 2.16917e-05
56 *262:47 *4413:B1 0.000194694
57 *262:47 *4413:C1 4.82919e-05
58 *262:47 *4415:A0 0.00011485
59 *262:47 *4637:RESET_B 2.40101e-05
60 *262:47 *4809:A 0.000124456
61 *262:47 *5001:A 4.82919e-05
62 *262:47 *5019:A 8.88631e-05
63 *262:47 *615:116 0.000250076
64 *262:56 *4415:A0 2.66586e-05
65 *262:56 *4415:A1 4.82863e-05
66 *262:60 *4645:D 0
67 *262:60 *613:106 0
68 *262:60 *628:38 3.26822e-05
69 *262:60 *710:16 0
70 *262:60 *836:71 0
71 *262:64 *4409:A1 3.28012e-05
72 *262:64 *4627:RESET_B 0.000136553
73 *262:64 *5041:A 8.65905e-05
74 *262:105 *4415:A1 0.00042453
75 *262:105 *4426:A0 0
76 *262:105 *4645:D 0.000159755
77 *262:105 *4695:A 0
78 *262:105 *4891:A 0
79 *262:105 *613:106 0
80 *262:107 *4426:A0 0
81 *262:107 *4432:A0 0.000103803
82 *262:107 *4695:A 0
83 *262:111 *4432:A0 1.93849e-05
84 *262:111 *4438:A0 0
85 *3976:B1_N *4408:A 0
86 *3980:A2 *3982:B1_N 0.000145376
87 *4450:S *4442:S 0.0001249
88 *4466:S *3982:B1_N 0
89 *4466:S *262:28 0
90 *4627:D *262:60 0
91 *4635:D *262:60 3.86607e-05
92 *4636:D *262:105 4.82919e-05
93 *4640:D *4442:S 8.97486e-05
94 *251:43 *3982:B1_N 5.7344e-05
*RES
1 *3981:Y *3982:B1_N 19.2188 
2 *3981:Y *262:28 10.335 
3 *262:28 *4416:B 5.745 
4 *262:28 *262:47 17.51 
5 *262:47 *4415:S 1.96 
6 *262:47 *262:56 1.14 
7 *262:56 *262:60 14.6 
8 *262:60 *262:64 3.485 
9 *262:64 *4408:A 16.925 
10 *262:64 *4409:A2 2.08375 
11 *262:60 *4402:S 8.175 
12 *262:56 *262:105 19.775 
13 *262:105 *262:107 8.265 
14 *262:107 *262:111 8.48 
15 *262:111 *4442:S 21.755 
16 *262:111 *4438:S 1.6 
17 *262:107 *4432:S 3.6 
18 *262:105 *4426:S 4.74 
*END

*D_NET *263 0.0224063
*CONN
*I *3984:B1_N I *D sky130_fd_sc_hd__a21bo_2
*I *4452:S I *D sky130_fd_sc_hd__mux2_1
*I *4451:S I *D sky130_fd_sc_hd__mux2_1
*I *4453:S I *D sky130_fd_sc_hd__mux2_1
*I *4454:S I *D sky130_fd_sc_hd__mux2_1
*I *4455:S I *D sky130_fd_sc_hd__mux2_1
*I *4456:S I *D sky130_fd_sc_hd__mux2_1
*I *4457:S I *D sky130_fd_sc_hd__mux2_1
*I *4458:S I *D sky130_fd_sc_hd__mux2_1
*I *3983:Y O *D sky130_fd_sc_hd__nand2_2
*CAP
1 *3984:B1_N 0.000771802
2 *4452:S 3.97415e-05
3 *4451:S 0.000352759
4 *4453:S 0.000267049
5 *4454:S 0
6 *4455:S 0
7 *4456:S 8.2914e-05
8 *4457:S 0.000278704
9 *4458:S 0.0019619
10 *3983:Y 0
11 *263:61 0.000785961
12 *263:51 0.00101918
13 *263:45 0.00085301
14 *263:43 0.00114979
15 *263:41 0.000977327
16 *263:39 0.000930428
17 *263:8 0.00296602
18 *263:6 0.000885242
19 *3984:B1_N *3968:C 0.000113255
20 *3984:B1_N *3975:B 2.86623e-05
21 *3984:B1_N *3982:A1 3.72843e-05
22 *3984:B1_N *694:99 0.000204545
23 *3984:B1_N *1052:21 5.83121e-06
24 *4451:S *4451:A1 0.000187766
25 *4451:S *4460:A1 0
26 *4451:S *4643:RESET_B 0
27 *4451:S *4658:CLK 6.74577e-05
28 *4451:S *4839:A 0
29 *4451:S *717:73 0
30 *4451:S *778:12 0.000140836
31 *4452:S *4452:A1 2.75229e-05
32 *4453:S *4395:A1 0.000198945
33 *4453:S *4453:A0 1.61831e-05
34 *4453:S *4453:A1 2.75145e-05
35 *4453:S *4644:RESET_B 2.30975e-05
36 *4453:S *4857:A 0.000163199
37 *4456:S *4397:A1 1.91597e-05
38 *4456:S *4456:A1 4.89395e-05
39 *4456:S *721:27 0.000197862
40 *4457:S *4399:A1 1.26548e-05
41 *4457:S *4457:A0 2.24336e-05
42 *4457:S *4862:A 6.97634e-05
43 *4457:S *616:101 0
44 *4457:S *714:10 0
45 *4457:S *714:14 0
46 *4457:S *721:35 0.00032329
47 *4458:S *4356:A1 0.000198939
48 *4458:S *4397:B1 0
49 *4458:S *4403:A 0
50 *4458:S *4417:B 0.000141599
51 *4458:S *4420:A1 0.000200071
52 *4458:S *4424:A1 1.15688e-05
53 *4458:S *4424:A2 5.16348e-05
54 *4458:S *4424:B1_N 0
55 *4458:S *4458:A0 0.000425663
56 *4458:S *4458:A1 0.000113988
57 *4458:S *4622:CLK 0
58 *4458:S *4630:D 4.94404e-05
59 *4458:S *4637:RESET_B 0.000250378
60 *4458:S *4657:D 0
61 *4458:S *4682:RESET_B 0
62 *4458:S *4874:A 8.42161e-05
63 *4458:S *4905:A 0.000255451
64 *4458:S *580:29 0
65 *4458:S *583:14 0
66 *4458:S *615:10 8.55971e-05
67 *4458:S *615:16 0.000139862
68 *4458:S *615:116 0.000101421
69 *4458:S *694:101 8.71001e-05
70 *4458:S *722:42 0.000200615
71 *263:8 *572:10 0
72 *263:8 *572:12 0
73 *263:8 *694:99 3.05295e-05
74 *263:8 *694:101 9.42224e-05
75 *263:39 *4403:B 4.82919e-05
76 *263:39 *4406:D_N 4.99619e-05
77 *263:39 *4444:A1 0.000542788
78 *263:39 *4452:A1 2.75145e-05
79 *263:39 *4731:A 0.000950539
80 *263:39 *534:6 0.000193806
81 *263:39 *579:27 0.000333332
82 *263:39 *579:42 2.7441e-05
83 *263:39 *980:54 0.000368678
84 *263:39 *980:77 0.000232999
85 *263:43 *4395:A1 0
86 *263:43 *4460:A1 0
87 *263:43 *4643:RESET_B 0
88 *263:43 *4644:RESET_B 0
89 *263:43 *5011:A 0
90 *263:43 *717:54 0
91 *263:43 *717:64 0
92 *263:45 *4446:A1 0
93 *263:45 *4643:RESET_B 0
94 *263:45 *4644:RESET_B 0
95 *263:45 *4645:RESET_B 0
96 *263:45 *4653:CLK 0
97 *263:45 *4857:A 0
98 *263:45 *4861:A 0
99 *263:51 *4398:A1 0
100 *263:51 *4447:A1 1.61831e-05
101 *263:51 *4454:A0 0.000102133
102 *263:51 *4455:A1 7.35729e-05
103 *263:51 *4463:A1 0
104 *263:51 *4654:D 0.00015997
105 *263:51 *4824:A 2.03321e-05
106 *263:51 *4857:A 0
107 *263:51 *4861:A 0
108 *263:51 *762:12 0.000133657
109 *263:61 *4397:A1 0.000157646
110 *263:61 *4398:A1 0.000166346
111 *263:61 *4447:A1 1.83847e-05
112 *263:61 *4639:RESET_B 7.10475e-05
113 *263:61 *4654:D 0
114 *263:61 *4862:A 1.79174e-05
115 *3976:B1_N *3984:B1_N 0.000111439
116 *3976:B1_N *263:8 3.68682e-05
117 *3984:A2 *3984:B1_N 8.08153e-06
118 *4416:B *4458:S 0
119 *4466:S *3984:B1_N 0.000181376
120 *4651:D *263:39 5.0751e-05
121 *4652:D *4453:S 4.99619e-05
122 *4653:D *263:45 0
123 *4655:D *4457:S 8.9257e-05
124 *4655:D *263:61 1.56428e-05
125 *4678:D *3984:B1_N 0
126 *4825:A *263:61 0
127 *4898:A *263:51 0
128 *5005:A *4458:S 0
129 *259:8 *3984:B1_N 2.24992e-05
130 *259:35 *263:39 2.75229e-05
131 *259:48 *263:39 0.000138799
132 *259:56 *263:51 0
133 *259:58 *263:61 0
134 *260:10 *3984:B1_N 8.69088e-05
135 *260:55 *4451:S 9.428e-05
136 *262:28 *4458:S 0
*RES
1 *3983:Y *263:6 3.6 
2 *263:6 *263:8 2.655 
3 *263:8 *4458:S 46.89 
4 *263:8 *263:39 27.995 
5 *263:39 *263:41 2 
6 *263:41 *263:43 10.1775 
7 *263:43 *263:45 4.3125 
8 *263:45 *263:51 14.045 
9 *263:51 *263:61 12.94 
10 *263:61 *4457:S 12.08 
11 *263:61 *4456:S 3.775 
12 *263:51 *4455:S 1.6 
13 *263:45 *4454:S 3.6 
14 *263:43 *4453:S 9.2325 
15 *263:41 *4451:S 11.61 
16 *263:39 *4452:S 2.41 
17 *263:6 *3984:B1_N 20.9725 
*END

*D_NET *264 0.0232276
*CONN
*I *4748:A I *D sky130_fd_sc_hd__clkdlybuf4s25_1
*I *4755:A I *D sky130_fd_sc_hd__clkdlybuf4s25_1
*I *3986:Y O *D sky130_fd_sc_hd__nor2_2
*CAP
1 *4748:A 0.00762164
2 *4755:A 0.000437005
3 *3986:Y 0
4 *264:6 0.00805865
5 *4748:A *3986:A 5.53249e-06
6 *4748:A *4068:A1 0.000185907
7 *4748:A *4482:A1 0.000282592
8 *4748:A *4590:RESET_B 0.000156313
9 *4748:A *4773:A 0.00236032
10 *4748:A *4775:A 4.68279e-05
11 *4748:A *266:26 0.000204151
12 *4748:A *271:6 0.00108955
13 *4748:A *694:14 0
14 *4748:A *1001:44 0.000311666
15 *4748:A *1128:26 0.00166612
16 *4755:A *3986:A 2.7881e-05
17 *4755:A *4475:A1 0
18 *4755:A *4775:A 6.46436e-05
19 *4755:A *694:16 0
20 *4755:A *1005:8 3.95724e-05
21 *4755:A *1005:16 0
22 *4755:A *1029:25 0.000159957
23 *4755:A *1128:26 0.000147944
24 *3:30 *4748:A 0.000361337
*RES
1 *3986:Y *264:6 3.6 
2 *264:6 *4755:A 11.775 
3 *264:6 *4748:A 23.5447 
*END

*D_NET *265 0.0143593
*CONN
*I *3999:C I *D sky130_fd_sc_hd__and3b_2
*I *3990:C_N I *D sky130_fd_sc_hd__nor3b_4
*I *4018:C I *D sky130_fd_sc_hd__and3_2
*I *4008:B I *D sky130_fd_sc_hd__and3b_2
*I *3989:X O *D sky130_fd_sc_hd__and4b_2
*CAP
1 *3999:C 6.98456e-05
2 *3990:C_N 0
3 *4018:C 5.50143e-05
4 *4008:B 0.000205019
5 *3989:X 0
6 *265:25 5.50143e-05
7 *265:12 0.000309703
8 *265:10 0.000341507
9 *265:6 0.00520403
10 *265:4 0.00503705
11 *3999:C *4482:A1 0.000240011
12 *3999:C *4486:A0 0.00011731
13 *3999:C *725:6 4.82863e-05
14 *4008:B *5000:A 0.000103775
15 *4008:B *723:12 0
16 *4008:B *723:14 0
17 *4008:B *725:12 3.59531e-06
18 *4008:B *725:27 6.62605e-05
19 *4018:C *270:12 3.21081e-06
20 *4018:C *270:131 0.000122331
21 *4018:C *725:21 3.66286e-05
22 *4018:C *725:27 4.82919e-05
23 *265:6 *4064:A1 0.000110793
24 *265:6 *4081:S 8.73389e-06
25 *265:6 *4245:A1 0.000563836
26 *265:6 *4245:B1 4.77757e-05
27 *265:6 *4245:C1 8.65961e-05
28 *265:6 *4753:A 4.82919e-05
29 *265:6 *4967:A 6.6564e-05
30 *265:6 *4975:A 1.14282e-05
31 *265:6 *5049:A 0.000471307
32 *265:6 *5060:A 4.82919e-05
33 *265:6 *266:26 0.00015765
34 *265:6 *947:10 0.000142661
35 *265:6 *984:10 6.6925e-05
36 *265:6 *1084:25 0.000194019
37 *265:10 *5060:A 0
38 *265:10 *266:10 0
39 *265:10 *723:8 0
40 *265:10 *723:10 0
41 *265:12 *4773:A 0
42 *265:12 *725:12 6.85065e-05
43 *265:12 *725:27 8.73147e-06
44 *5026:A *265:10 1.71013e-05
45 *5027:A *265:10 0
46 *5028:A *265:6 4.82919e-05
47 *5031:A *265:6 0.0001249
*RES
1 *3989:X *265:4 1.6 
2 *265:4 *265:6 77.04 
3 *265:6 *265:10 4.655 
4 *265:10 *265:12 1.89 
5 *265:12 *4008:B 6.72 
6 *265:12 *265:25 2 
7 *265:25 *4018:C 3.1 
8 *265:25 *3990:C_N 1.6 
9 *265:10 *3999:C 6.27375 
*END

*D_NET *266 0.0138525
*CONN
*I *5060:A I *D sky130_fd_sc_hd__buf_4
*I *3995:S I *D sky130_fd_sc_hd__mux2_1
*I *3996:S I *D sky130_fd_sc_hd__mux2_1
*I *3994:S I *D sky130_fd_sc_hd__mux2_1
*I *3990:Y O *D sky130_fd_sc_hd__nor3b_4
*CAP
1 *5060:A 5.2912e-05
2 *3995:S 0
3 *3996:S 6.23367e-05
4 *3994:S 0.00115555
5 *3990:Y 0.000395073
6 *266:34 0.00191594
7 *266:26 0.00318492
8 *266:10 0.00293486
9 *3994:S *3996:A1 4.21973e-05
10 *3994:S *4061:S 0.000284161
11 *3994:S *4198:A 0.000206123
12 *3994:S *4281:A2 0
13 *3994:S *4286:A1 0.000221366
14 *3994:S *4286:B2 0.000110636
15 *3994:S *4549:SET_B 9.60047e-05
16 *3994:S *4903:A 0.000120186
17 *3994:S *275:61 1.7396e-05
18 *3994:S *958:58 7.40446e-05
19 *3994:S *958:74 0.000532851
20 *3994:S *958:109 0.000354611
21 *3994:S *1040:18 0
22 *3996:S *3996:A0 1.91597e-05
23 *3996:S *3996:A1 1.08758e-05
24 *5060:A *947:10 0
25 *266:10 *3990:B 2.49909e-05
26 *266:10 *5000:A 3.91477e-05
27 *266:10 *267:24 0.000112893
28 *266:10 *270:131 0.000103353
29 *266:10 *271:14 2.16654e-05
30 *266:10 *723:8 0
31 *266:10 *725:21 1.08758e-05
32 *266:10 *947:10 0
33 *266:26 *3995:A0 0
34 *266:26 *4848:A 8.65905e-05
35 *266:26 *1028:12 0.000621884
36 *266:34 *3995:A0 0
37 *266:34 *4023:A0 0
38 *266:34 *4280:C 0
39 *266:34 *4281:A2 0
40 *266:34 *4286:B2 0.000261882
41 *266:34 *4518:RESET_B 8.68792e-05
42 *266:34 *4818:A 0
43 *266:34 *982:111 0
44 *266:34 *1010:84 5.05066e-06
45 *266:34 *1040:18 0
46 *266:34 *1040:25 4.91642e-05
47 *4494:D *266:34 0
48 *4495:D *3994:S 7.45968e-05
49 *4748:A *266:26 0.000204151
50 *5026:A *266:26 3.00381e-05
51 *5035:A *266:26 0.000122155
52 *265:6 *5060:A 4.82919e-05
53 *265:6 *266:26 0.00015765
54 *265:10 *5060:A 0
55 *265:10 *266:10 0
*RES
1 *3990:Y *266:10 9.63 
2 *266:10 *266:26 43.405 
3 *266:26 *266:34 13.97 
4 *266:34 *3994:S 32.63 
5 *266:34 *3996:S 2.77 
6 *266:26 *3995:S 3.6 
7 *266:10 *5060:A 4.665 
*END

*D_NET *267 0.0279653
*CONN
*I *4001:S I *D sky130_fd_sc_hd__mux2_1
*I *4007:S I *D sky130_fd_sc_hd__mux2_1
*I *4002:S I *D sky130_fd_sc_hd__mux2_1
*I *4004:S I *D sky130_fd_sc_hd__mux2_1
*I *4006:S I *D sky130_fd_sc_hd__mux2_1
*I *4003:S I *D sky130_fd_sc_hd__mux2_1
*I *4005:S I *D sky130_fd_sc_hd__mux2_1
*I *4000:S I *D sky130_fd_sc_hd__mux2_1
*I *3999:X O *D sky130_fd_sc_hd__and3b_2
*CAP
1 *4001:S 0.000475689
2 *4007:S 4.77492e-05
3 *4002:S 0.000366759
4 *4004:S 5.30611e-05
5 *4006:S 0.000473479
6 *4003:S 0
7 *4005:S 0.000970308
8 *4000:S 0.000420325
9 *3999:X 0.000703508
10 *267:62 0.00135891
11 *267:54 0.00177377
12 *267:46 0.00151533
13 *267:36 0.00136825
14 *267:30 0.0015785
15 *267:24 0.00183871
16 *4000:S *4000:A0 5.05437e-05
17 *4000:S *4482:A1 0.00057596
18 *4000:S *4486:A0 0.000257644
19 *4000:S *271:6 4.82919e-05
20 *4000:S *902:20 0.000745186
21 *4001:S *4001:A1 0.000113821
22 *4001:S *4030:S 0.000293598
23 *4001:S *4154:C 0
24 *4001:S *4155:B1 3.32976e-05
25 *4001:S *984:27 4.82919e-05
26 *4001:S *984:31 7.96207e-05
27 *4002:S *4177:A2 0.000926009
28 *4002:S *4178:A2 0.00040209
29 *4002:S *5092:A 4.40933e-05
30 *4002:S *986:42 7.25146e-05
31 *4004:S *4231:A1 2.25106e-05
32 *4004:S *4237:A2 0.000112728
33 *4004:S *272:57 8.53113e-06
34 *4004:S *275:61 1.15688e-05
35 *4004:S *280:87 8.17606e-05
36 *4005:S *4003:A0 6.52265e-05
37 *4005:S *4034:A1 0.000136884
38 *4005:S *4052:S 0.000311277
39 *4005:S *4061:A0 0.000250378
40 *4005:S *4285:A1 0.000103127
41 *4005:S *4285:A2 0
42 *4005:S *4716:A 0.00013687
43 *4005:S *4764:A 0.000164536
44 *4005:S *4779:A 0
45 *4005:S *4870:A 1.73877e-05
46 *4005:S *624:80 0.000122325
47 *4005:S *624:93 3.57349e-05
48 *4005:S *1006:59 9.77943e-05
49 *4005:S *1006:74 7.06865e-05
50 *4005:S *1028:18 2.15594e-05
51 *4005:S *1028:20 0.000275317
52 *4005:S *1028:22 3.13381e-05
53 *4006:S *4053:A0 0
54 *4006:S *4330:A_N 0.000682317
55 *4006:S *4330:B 3.71061e-05
56 *4006:S *4549:CLK 6.57201e-05
57 *4006:S *4764:A 0
58 *4006:S *621:43 6.52906e-05
59 *4006:S *987:118 0
60 *4006:S *1006:22 0
61 *4007:S *5092:A 0.000196381
62 *4007:S *381:22 0.000111918
63 *267:24 *4046:A 5.06048e-05
64 *267:24 *4157:C1 9.31022e-05
65 *267:24 *5000:A 0
66 *267:24 *271:14 0.000247784
67 *267:24 *625:20 0.000202109
68 *267:24 *723:16 9.29751e-06
69 *267:30 *4030:S 0.000160635
70 *267:30 *4046:A 4.66474e-05
71 *267:30 *4054:A1 0
72 *267:30 *4157:C1 0
73 *267:30 *268:81 0
74 *267:30 *268:87 0
75 *267:30 *273:10 0.000617034
76 *267:30 *273:80 0.000178438
77 *267:30 *273:86 0.000471097
78 *267:30 *274:10 5.21545e-05
79 *267:30 *275:12 0
80 *267:30 *625:20 0
81 *267:36 *4054:A1 0
82 *267:36 *5092:A 0.00114461
83 *267:36 *273:86 2.45601e-05
84 *267:36 *987:84 0.000224692
85 *267:46 *4700:A 5.05437e-05
86 *267:46 *5092:A 0.000123225
87 *267:46 *274:74 0.000387896
88 *267:46 *274:85 4.82863e-05
89 *267:46 *276:23 3.9442e-05
90 *267:46 *381:22 0.00099144
91 *267:46 *612:57 0.000474803
92 *267:46 *982:162 4.16262e-05
93 *267:46 *987:84 0.000452151
94 *267:46 *1009:45 3.9442e-05
95 *267:54 *4231:A2 6.8725e-06
96 *267:54 *4231:B2 0.000232262
97 *267:54 *4549:SET_B 4.82792e-05
98 *267:54 *689:8 0.000237243
99 *267:54 *982:151 1.83847e-05
100 *267:54 *982:162 4.49917e-05
101 *267:54 *987:90 0.000205684
102 *267:54 *987:94 6.25927e-05
103 *267:54 *987:118 0.000176662
104 *267:62 *4003:A0 0.0001249
105 *267:62 *4203:A1 0.000135903
106 *267:62 *4331:B1 0
107 *267:62 *4764:A 0
108 *267:62 *4877:A 0.000219699
109 *267:62 *622:57 4.35348e-05
110 *4505:D *267:36 0.000163204
111 *4539:D *267:30 0
112 *4549:D *4006:S 5.39961e-05
113 *4549:D *267:62 3.50033e-05
114 *266:10 *267:24 0.000112893
*RES
1 *3999:X *4000:S 15.395 
2 *3999:X *267:24 13.1 
3 *267:24 *267:30 24.5 
4 *267:30 *267:36 13.07 
5 *267:36 *267:46 21.295 
6 *267:46 *267:54 17.75 
7 *267:54 *267:62 9.74 
8 *267:62 *4005:S 29.045 
9 *267:62 *4003:S 1.6 
10 *267:54 *4006:S 14.67 
11 *267:46 *4004:S 7.235 
12 *267:36 *4002:S 17.435 
13 *267:30 *4007:S 5.43 
14 *267:24 *4001:S 12.26 
*END

*D_NET *268 0.026547
*CONN
*I *4010:S I *D sky130_fd_sc_hd__mux2_1
*I *4016:S I *D sky130_fd_sc_hd__mux2_1
*I *4011:S I *D sky130_fd_sc_hd__mux2_1
*I *4015:S I *D sky130_fd_sc_hd__mux2_1
*I *4012:S I *D sky130_fd_sc_hd__mux2_1
*I *4014:S I *D sky130_fd_sc_hd__mux2_1
*I *4013:S I *D sky130_fd_sc_hd__mux2_1
*I *4009:S I *D sky130_fd_sc_hd__mux2_1
*I *4008:X O *D sky130_fd_sc_hd__and3b_2
*CAP
1 *4010:S 0.00010667
2 *4016:S 0
3 *4011:S 0
4 *4015:S 0.000282616
5 *4012:S 0.000802091
6 *4014:S 0.00108195
7 *4013:S 4.48096e-05
8 *4009:S 2.64353e-05
9 *4008:X 0.000237625
10 *268:107 0.0017981
11 *268:101 0.00180071
12 *268:87 0.002188
13 *268:81 0.00160728
14 *268:51 0.00234315
15 *268:32 0.00235349
16 *268:10 0.00174822
17 *4009:S *4009:A1 3.64998e-06
18 *4009:S *1024:20 2.49909e-05
19 *4010:S *429:6 0.000138808
20 *4012:S *4012:A0 5.30673e-05
21 *4012:S *4484:S 0.000297263
22 *4012:S *4781:A 0
23 *4012:S *994:69 0.00120196
24 *4012:S *1036:14 0
25 *4013:S *4013:A1 8.40213e-05
26 *4013:S *4234:A_N 0
27 *4013:S *1010:58 1.61831e-05
28 *4013:S *1025:68 0.00013186
29 *4014:S *4233:A1 0.000159097
30 *4014:S *4233:B1 0.000130126
31 *4014:S *4236:A 8.65905e-05
32 *4014:S *4236:D_N 0.000145029
33 *4014:S *4503:RESET_B 0.000130289
34 *4014:S *658:8 2.96524e-05
35 *4014:S *1017:18 0.000144075
36 *4014:S *1017:20 0.000147397
37 *4014:S *1017:22 2.92496e-05
38 *4015:S *4516:CLK 5.83121e-06
39 *4015:S *4528:RESET_B 8.90879e-05
40 *4015:S *4781:A 4.18603e-06
41 *4015:S *4784:A 2.45182e-05
42 *4015:S *619:138 0.000112123
43 *4015:S *1036:14 0
44 *4015:S *1039:16 1.19928e-05
45 *4015:S *1039:22 9.53428e-06
46 *268:10 *4017:B 0.000179613
47 *268:10 *4046:C_N 3.11742e-05
48 *268:10 *4055:B 4.86121e-05
49 *268:10 *271:34 8.06879e-05
50 *268:10 *273:10 1.52776e-05
51 *268:10 *274:10 9.44791e-05
52 *268:10 *625:39 8.23472e-05
53 *268:10 *723:16 0
54 *268:10 *725:31 1.53032e-05
55 *268:32 *4029:A0 0.000499154
56 *268:32 *4029:A1 8.8266e-05
57 *268:32 *4506:SET_B 2.95708e-05
58 *268:32 *270:18 0
59 *268:32 *625:24 5.05521e-05
60 *268:32 *902:32 3.76596e-05
61 *268:32 *902:34 3.67779e-05
62 *268:32 *982:85 0.000101386
63 *268:32 *1016:111 0.000141599
64 *268:32 *1018:43 9.46111e-06
65 *268:32 *1048:50 0.000119066
66 *268:32 *1048:58 0
67 *268:51 *4236:D_N 3.96088e-05
68 *268:51 *270:56 0
69 *268:51 *902:32 5.36054e-05
70 *268:51 *982:85 0
71 *268:51 *982:111 0
72 *268:51 *1016:111 9.42665e-05
73 *268:51 *1017:22 3.79595e-05
74 *268:81 *4704:A 0.000142011
75 *268:81 *625:20 2.48188e-05
76 *268:81 *625:24 0.000170118
77 *268:87 *4048:A0 4.75576e-05
78 *268:87 *4048:A1 0.000203423
79 *268:87 *4513:RESET_B 7.25617e-05
80 *268:87 *4545:RESET_B 8.93282e-05
81 *268:87 *4704:A 4.55393e-05
82 *268:87 *4916:A 0
83 *268:87 *273:80 0.000178658
84 *268:87 *273:86 0.00126454
85 *268:87 *273:94 0.000157041
86 *268:87 *381:22 6.95753e-05
87 *268:87 *696:37 1.11262e-05
88 *268:87 *1046:43 0
89 *268:87 *1046:50 0.000184897
90 *268:101 *4011:A0 0.00012657
91 *268:101 *4011:A1 0.000330693
92 *268:101 *4016:A1 2.02052e-05
93 *268:101 *4513:RESET_B 0.000192674
94 *268:101 *4556:CLK 0.000296088
95 *268:101 *4686:RESET_B 0
96 *268:101 *4817:A 8.8266e-05
97 *268:101 *619:25 5.21722e-05
98 *268:101 *696:18 0
99 *268:101 *696:22 0.000112978
100 *268:101 *696:33 0.000113181
101 *268:107 *4011:A0 3.90495e-05
102 *268:107 *4174:C1 8.82557e-05
103 *268:107 *995:37 0.000545352
104 *4522:D *268:32 9.42896e-05
105 *4547:D *268:87 0.00026789
106 *4686:D *268:101 0
107 *3:30 *268:51 0
108 *267:30 *268:81 0
109 *267:30 *268:87 0
*RES
1 *4008:X *268:10 11.315 
2 *268:10 *268:32 24.735 
3 *268:32 *4009:S 4.05 
4 *268:32 *268:51 4.8756 
5 *268:51 *4013:S 5.1 
6 *268:51 *4014:S 18.945 
7 *268:10 *268:81 9.56 
8 *268:81 *268:87 29.22 
9 *268:87 *268:101 23.54 
10 *268:101 *268:107 13.85 
11 *268:107 *4012:S 22.275 
12 *268:107 *4015:S 9.15 
13 *268:101 *4011:S 1.6 
14 *268:87 *4016:S 3.6 
15 *268:81 *4010:S 5.775 
*END

*D_NET *269 0.000760486
*CONN
*I *4055:A I *D sky130_fd_sc_hd__or2_2
*I *4017:Y O *D sky130_fd_sc_hd__nand2_2
*CAP
1 *4055:A 0.000196249
2 *4017:Y 0.000196249
3 *4055:A *4046:C_N 3.15852e-05
4 *4055:A *4759:A 4.12825e-05
5 *4055:A *4766:A 0
6 *4055:A *272:10 9.10688e-05
7 *4055:A *275:12 6.69679e-05
8 *4055:A *625:39 4.66108e-05
9 *4055:A *725:29 5.0164e-05
10 *4055:A *725:31 4.03082e-05
*RES
1 *4017:Y *4055:A 11.58 
*END

*D_NET *270 0.0343243
*CONN
*I *4020:S I *D sky130_fd_sc_hd__mux2_1
*I *4026:S I *D sky130_fd_sc_hd__mux2_1
*I *4019:S I *D sky130_fd_sc_hd__mux2_1
*I *4023:S I *D sky130_fd_sc_hd__mux2_1
*I *4024:S I *D sky130_fd_sc_hd__mux2_1
*I *4022:S I *D sky130_fd_sc_hd__mux2_1
*I *4025:S I *D sky130_fd_sc_hd__mux2_1
*I *4021:S I *D sky130_fd_sc_hd__mux2_1
*I *4018:X O *D sky130_fd_sc_hd__and3_2
*CAP
1 *4020:S 6.67182e-05
2 *4026:S 0.000814989
3 *4019:S 0
4 *4023:S 1.10347e-05
5 *4024:S 0.000127691
6 *4022:S 0.000657048
7 *4025:S 0.00103538
8 *4021:S 0.000184367
9 *4018:X 0.00203979
10 *270:131 0.00213132
11 *270:60 0.00226773
12 *270:56 0.00234954
13 *270:46 0.00088659
14 *270:18 0.00274018
15 *270:12 0.00234169
16 *4020:S *4020:A0 8.65961e-05
17 *4020:S *4020:A1 4.99619e-05
18 *4020:S *984:27 0.000234674
19 *4021:S *656:10 4.40812e-05
20 *4021:S *995:46 0.000360758
21 *4021:S *1009:58 0
22 *4021:S *1009:60 0
23 *4022:S *4024:A1 8.62613e-05
24 *4022:S *4284:C 2.11552e-05
25 *4022:S *4519:RESET_B 0
26 *4022:S *4533:RESET_B 7.00889e-06
27 *4022:S *4689:CLK 8.57024e-05
28 *4022:S *4757:A 0.000390407
29 *4022:S *4886:A 7.30835e-05
30 *4022:S *273:38 0.00013994
31 *4022:S *1010:84 0.000471294
32 *4022:S *1022:114 0.000847993
33 *4022:S *1035:46 0
34 *4023:S *4023:A0 7.96104e-06
35 *4023:S *4236:A 5.02126e-06
36 *4023:S *1018:101 8.7152e-06
37 *4024:S *4024:A1 0.000268258
38 *4024:S *4886:A 0.000186509
39 *4025:S *4025:A0 7.1932e-06
40 *4025:S *5089:A 0.000886217
41 *4025:S *612:20 0.000526915
42 *4025:S *1009:98 0.000483645
43 *4026:S *4140:A2 0.000781653
44 *4026:S *4152:A 0
45 *4026:S *4154:C 0
46 *4026:S *4157:B1 0
47 *4026:S *4158:A1 5.05562e-05
48 *4026:S *4158:A3 0.000860908
49 *4026:S *611:23 1.00941e-05
50 *4026:S *631:8 0
51 *4026:S *947:26 0.000723314
52 *4026:S *1029:113 0
53 *270:12 *4498:RESET_B 0
54 *270:12 *4514:RESET_B 8.85425e-05
55 *270:12 *625:51 9.4087e-05
56 *270:12 *638:8 5.07419e-05
57 *270:12 *902:30 5.13581e-05
58 *270:18 *3991:A0 0
59 *270:18 *4049:A0 0.000532676
60 *270:18 *4049:A1 9.24388e-05
61 *270:18 *4133:B1 0
62 *270:18 *4133:C1 0
63 *270:18 *4135:A_N 0.000101753
64 *270:18 *4173:B2 0.000397237
65 *270:18 *4490:SET_B 4.19867e-05
66 *270:18 *4506:SET_B 0
67 *270:18 *273:26 0.000270647
68 *270:18 *274:85 0.00104669
69 *270:18 *274:100 0.000337524
70 *270:18 *625:51 0
71 *270:18 *664:8 0.000237362
72 *270:18 *672:12 6.9855e-05
73 *270:18 *902:30 3.25997e-05
74 *270:18 *902:32 0.000122754
75 *270:18 *902:34 7.23961e-06
76 *270:18 *902:36 6.65804e-05
77 *270:18 *995:46 0.000195233
78 *270:18 *995:57 9.10613e-05
79 *270:18 *995:68 0.000365536
80 *270:18 *995:79 0.00013661
81 *270:18 *1009:45 0.000477073
82 *270:18 *1009:58 0
83 *270:18 *1010:24 1.7635e-05
84 *270:18 *1016:12 0
85 *270:18 *1048:107 8.47372e-05
86 *270:46 *5000:A 8.65905e-05
87 *270:56 *5000:A 0.00057596
88 *270:56 *1010:42 7.60965e-05
89 *270:56 *1025:14 0.000342923
90 *270:60 *1010:84 0
91 *270:131 *3990:B 4.66108e-05
92 *270:131 *4018:B 0.000195515
93 *270:131 *4020:A0 5.08934e-05
94 *270:131 *4140:A2 2.77993e-05
95 *270:131 *4154:C 0
96 *270:131 *4499:SET_B 0
97 *270:131 *625:20 0.000273878
98 *270:131 *625:102 0
99 *270:131 *639:10 9.66106e-05
100 *270:131 *725:21 4.47209e-05
101 *4018:C *270:12 3.21081e-06
102 *4018:C *270:131 0.000122331
103 *4362:B2 *4026:S 0
104 *4506:D *270:18 5.88411e-05
105 *4515:D *270:131 0.000117407
106 *4684:D *270:131 0
107 *4688:D *270:56 1.92979e-05
108 *3:30 *270:56 0.000449779
109 *3:30 *270:60 0.00126259
110 *255:24 *4026:S 0
111 *266:10 *270:131 0.000103353
112 *268:32 *270:18 0
113 *268:51 *270:56 0
*RES
1 *4018:X *270:12 16.65 
2 *270:12 *270:18 41.6775 
3 *270:18 *4021:S 7.9125 
4 *270:18 *4025:S 8.07517 
5 *270:12 *270:46 2.795 
6 *270:46 *270:56 14.1578 
7 *270:56 *270:60 3.80093 
8 *270:60 *4022:S 22.4025 
9 *270:60 *4024:S 7.6575 
10 *270:56 *4023:S 4.3325 
11 *270:46 *4019:S 1.6 
12 *4018:X *270:131 26.805 
13 *270:131 *4026:S 25.23 
14 *270:131 *4020:S 5.775 
*END

*D_NET *271 0.0196957
*CONN
*I *4046:B I *D sky130_fd_sc_hd__or3b_2
*I *4055:B I *D sky130_fd_sc_hd__or2_2
*I *4037:A I *D sky130_fd_sc_hd__or3b_2
*I *4028:C I *D sky130_fd_sc_hd__or3_2
*I *4027:Y O *D sky130_fd_sc_hd__nand4_2
*CAP
1 *4046:B 3.69588e-05
2 *4055:B 0.000132158
3 *4037:A 0
4 *4028:C 5.77716e-05
5 *4027:Y 0
6 *271:34 0.000237551
7 *271:18 0.000106291
8 *271:14 0.000452014
9 *271:6 0.00596256
10 *271:4 0.0056275
11 *4028:C *4028:B 3.00381e-05
12 *4028:C *723:33 4.92062e-05
13 *4046:B *4030:S 4.66108e-05
14 *4055:B *4030:S 4.16353e-05
15 *4055:B *4046:C_N 4.82919e-05
16 *4055:B *273:10 9.18092e-05
17 *271:6 *4089:A1 4.17622e-05
18 *271:6 *4089:S 0.000230925
19 *271:6 *4097:A1 7.67415e-06
20 *271:6 *4482:A0 2.7441e-05
21 *271:6 *4482:A1 0.000982534
22 *271:6 *4482:S 0.000199541
23 *271:6 *4571:D 5.36384e-06
24 *271:6 *4582:RESET_B 0.00043116
25 *271:6 *4590:RESET_B 0.00024963
26 *271:6 *4752:A 5.0751e-05
27 *271:6 *884:6 5.36384e-06
28 *271:6 *1001:33 9.70988e-05
29 *271:6 *1001:44 0.00169191
30 *271:6 *1003:16 0.000117116
31 *271:6 *1057:28 0.000153869
32 *271:6 *1092:10 4.11324e-06
33 *271:14 *723:8 9.50342e-06
34 *271:14 *723:10 0.000214078
35 *271:14 *723:12 7.11219e-05
36 *271:14 *723:14 0.00013523
37 *271:14 *723:16 0.000134836
38 *271:14 *723:33 4.01778e-05
39 *271:18 *723:33 1.34503e-05
40 *271:34 *273:10 0.00015832
41 *4000:S *271:6 4.82919e-05
42 *4748:A *271:6 0.00108955
43 *4805:A *271:6 0.000165698
44 *266:10 *271:14 2.16654e-05
45 *267:24 *271:14 0.000247784
46 *268:10 *4055:B 4.86121e-05
47 *268:10 *271:34 8.06879e-05
*RES
1 *4027:Y *271:4 1.6 
2 *271:4 *271:6 74.28 
3 *271:6 *271:14 11.965 
4 *271:14 *271:18 0.81 
5 *271:18 *4028:C 2.74 
6 *271:18 *4037:A 1.6 
7 *271:14 *271:34 3.89 
8 *271:34 *4055:B 6.21 
9 *271:34 *4046:B 4.05 
*END

*D_NET *272 0.0313894
*CONN
*I *4030:S I *D sky130_fd_sc_hd__mux2_1
*I *4029:S I *D sky130_fd_sc_hd__mux2_1
*I *4036:S I *D sky130_fd_sc_hd__mux2_1
*I *4031:S I *D sky130_fd_sc_hd__mux2_1
*I *4035:S I *D sky130_fd_sc_hd__mux2_1
*I *4032:S I *D sky130_fd_sc_hd__mux2_1
*I *4033:S I *D sky130_fd_sc_hd__mux2_1
*I *4034:S I *D sky130_fd_sc_hd__mux2_1
*I *4028:X O *D sky130_fd_sc_hd__or3_2
*CAP
1 *4030:S 0.000365501
2 *4029:S 0
3 *4036:S 0.000207445
4 *4031:S 6.34364e-05
5 *4035:S 0.000337431
6 *4032:S 0.000636562
7 *4033:S 3.20052e-05
8 *4034:S 0.00114958
9 *4028:X 5.8897e-05
10 *272:149 0.00302635
11 *272:112 0.00334478
12 *272:76 0.00159596
13 *272:68 0.00155184
14 *272:57 0.00139061
15 *272:22 0.00306038
16 *272:16 0.0013388
17 *272:10 0.000743578
18 *4030:S *4030:A0 2.49909e-05
19 *4030:S *4046:A 8.23457e-05
20 *4030:S *4046:C_N 2.16917e-05
21 *4030:S *4155:A1 2.8185e-05
22 *4030:S *275:12 4.66108e-05
23 *4030:S *625:39 0.000143833
24 *4030:S *984:31 2.75229e-05
25 *4031:S *4031:A0 0
26 *4031:S *274:50 0.000272376
27 *4031:S *621:20 0.000165698
28 *4032:S *612:20 0.00128521
29 *4032:S *1006:12 2.10433e-05
30 *4033:S *4033:A0 0.000239807
31 *4033:S *276:23 0.000239807
32 *4034:S *4034:A1 4.66108e-05
33 *4034:S *4051:A0 0.000237249
34 *4034:S *4051:A1 0.000163204
35 *4034:S *4052:S 0.000153482
36 *4034:S *4284:A_N 0.000228642
37 *4034:S *4284:D 6.13486e-05
38 *4034:S *274:100 0.000311282
39 *4034:S *635:10 0.000114433
40 *4035:S *4035:A0 0.000154202
41 *4035:S *5052:A 1.32017e-05
42 *4035:S *612:20 0.000373264
43 *4035:S *1009:79 6.81034e-05
44 *4035:S *1036:14 7.6664e-05
45 *4036:S *4036:A0 5.05437e-05
46 *4036:S *4036:A1 3.23663e-05
47 *4036:S *619:10 8.65905e-05
48 *272:10 *4766:A 0
49 *272:16 *4029:A1 6.4422e-05
50 *272:16 *4141:B2 0
51 *272:16 *625:39 0.000431333
52 *272:16 *662:8 8.65961e-05
53 *272:22 *4141:B2 0
54 *272:22 *4765:A 0.000162311
55 *272:22 *274:100 0.000879047
56 *272:22 *1016:8 0.000185113
57 *272:57 *4004:A0 0.000168942
58 *272:57 *4004:A1 5.55258e-05
59 *272:57 *4033:A0 1.08758e-05
60 *272:57 *4230:A 3.45679e-05
61 *272:57 *4231:A1 4.23212e-05
62 *272:57 *4237:A2 2.77471e-05
63 *272:57 *4237:A3 9.32656e-05
64 *272:57 *4237:B2 0
65 *272:57 *4510:RESET_B 0.000187409
66 *272:57 *4947:A 0
67 *272:57 *276:23 0.000223103
68 *272:57 *381:22 0.000465614
69 *272:57 *612:83 0.000239967
70 *272:57 *642:10 3.32976e-05
71 *272:57 *958:35 0
72 *272:57 *1038:10 6.10014e-05
73 *272:68 *4231:B2 0
74 *272:68 *4335:A2 0.000237004
75 *272:68 *4496:CLK 0
76 *272:68 *280:95 0
77 *272:68 *621:37 0
78 *272:68 *982:151 0.0002014
79 *272:76 *4025:A1 6.57171e-05
80 *272:76 *4333:A1 0
81 *272:76 *4333:C1 5.80033e-05
82 *272:76 *4334:A_N 0
83 *272:76 *4335:A2 9.81696e-05
84 *272:76 *4336:B2 0.000304075
85 *272:76 *4496:CLK 0
86 *272:76 *478:16 4.23658e-05
87 *272:76 *1009:98 1.7635e-05
88 *272:76 *1039:26 0
89 *272:76 *1039:49 0
90 *272:112 *4336:A1 7.23602e-05
91 *272:112 *4980:A 7.63883e-05
92 *272:112 *275:36 0
93 *272:112 *275:42 0.000193806
94 *272:149 *4054:A0 8.65905e-05
95 *272:149 *4172:A 6.21553e-05
96 *272:149 *4172:B 2.11084e-05
97 *272:149 *4175:C 0
98 *272:149 *4177:A2 0
99 *272:149 *4178:A1 3.72916e-05
100 *272:149 *4178:A3 1.56428e-05
101 *272:149 *4178:B1 9.48971e-05
102 *272:149 *4336:A2 7.53115e-05
103 *272:149 *4492:RESET_B 4.18603e-06
104 *272:149 *4529:CLK 8.78735e-05
105 *272:149 *4537:CLK 0.000331522
106 *272:149 *4806:A 9.37731e-05
107 *272:149 *4980:A 0.000152814
108 *272:149 *5089:A 0
109 *272:149 *275:36 0
110 *272:149 *618:65 0.000150446
111 *272:149 *621:12 0
112 *272:149 *621:20 0
113 *272:149 *621:106 0.000503697
114 *272:149 *696:48 0
115 *4001:S *4030:S 0.000293598
116 *4004:S *272:57 8.53113e-06
117 *4046:B *4030:S 4.66108e-05
118 *4055:A *272:10 9.10688e-05
119 *4055:B *4030:S 4.16353e-05
120 *4495:D *4034:S 0.000216204
121 *4496:D *272:76 6.93831e-05
122 *4513:D *272:149 0
123 *4523:D *4030:S 1.90762e-05
124 *4528:D *272:76 5.05066e-06
125 *4529:D *4036:S 3.45588e-05
126 *4542:D *4034:S 0.000127315
127 *4550:D *272:57 6.55328e-05
128 *4552:D *272:68 0
129 *267:30 *4030:S 0.000160635
*RES
1 *4028:X *272:10 6.725 
2 *272:10 *272:16 8.555 
3 *272:16 *272:22 20.03 
4 *272:22 *4034:S 24.85 
5 *272:22 *272:57 28.385 
6 *272:57 *4033:S 3.775 
7 *272:57 *272:68 11.54 
8 *272:68 *272:76 12.2525 
9 *272:76 *4032:S 6.68503 
10 *272:76 *4035:S 8.7199 
11 *272:68 *272:112 9.88 
12 *272:112 *4031:S 6.48 
13 *272:112 *272:149 49.625 
14 *272:149 *4036:S 7.5 
15 *272:16 *4029:S 3.6 
16 *272:10 *4030:S 9.655 
*END

*D_NET *273 0.0290623
*CONN
*I *4039:S I *D sky130_fd_sc_hd__mux2_1
*I *4045:S I *D sky130_fd_sc_hd__mux2_1
*I *4040:S I *D sky130_fd_sc_hd__mux2_1
*I *4044:S I *D sky130_fd_sc_hd__mux2_1
*I *4038:S I *D sky130_fd_sc_hd__mux2_1
*I *4042:S I *D sky130_fd_sc_hd__mux2_1
*I *4043:S I *D sky130_fd_sc_hd__mux2_1
*I *4041:S I *D sky130_fd_sc_hd__mux2_1
*I *4037:X O *D sky130_fd_sc_hd__or3b_2
*CAP
1 *4039:S 0
2 *4045:S 0
3 *4040:S 9.4421e-06
4 *4044:S 0.00108443
5 *4038:S 2.08101e-05
6 *4042:S 0
7 *4043:S 0.000636416
8 *4041:S 0
9 *4037:X 0.00025031
10 *273:94 0.00208618
11 *273:86 0.00171564
12 *273:80 0.000923243
13 *273:38 0.00239276
14 *273:26 0.00295592
15 *273:12 0.00192474
16 *273:10 0.00115458
17 *4040:S *4040:A1 4.89395e-05
18 *4040:S *1024:76 7.50406e-05
19 *4043:S *4041:A1 0.000275369
20 *4043:S *4214:A2 0.000124895
21 *4043:S *4283:A_N 4.99619e-05
22 *4043:S *4535:CLK 0
23 *4043:S *4689:CLK 6.77417e-05
24 *4043:S *994:50 0.000473648
25 *4043:S *1007:39 0.000235568
26 *4043:S *1022:36 0.000138734
27 *4043:S *1028:77 0.000114492
28 *4043:S *1035:39 0.000288788
29 *4043:S *1035:46 6.81159e-05
30 *4044:S *4044:A1 0.000269962
31 *4044:S *4202:A2 1.2818e-05
32 *4044:S *4204:A2 0.000102539
33 *4044:S *4268:B1 0.000138059
34 *4044:S *4333:A1 4.73729e-05
35 *4044:S *4333:A2 4.15074e-05
36 *4044:S *4333:B1 2.69153e-05
37 *4044:S *4333:C1 0.0002336
38 *4044:S *4335:A1 0.000267554
39 *4044:S *4335:A2 4.41506e-05
40 *4044:S *4335:C1 1.07593e-05
41 *4044:S *4336:B2 4.77769e-05
42 *4044:S *4867:A 4.90227e-05
43 *4044:S *5052:A 4.77807e-05
44 *4044:S *5089:A 0.00010204
45 *4044:S *982:174 0.000121244
46 *4044:S *1016:51 8.23106e-05
47 *4044:S *1024:76 0.000645092
48 *273:10 *4046:A 6.92448e-05
49 *273:10 *274:10 0.000216987
50 *273:10 *723:16 2.42236e-05
51 *273:12 *4038:A1 5.30673e-05
52 *273:12 *429:6 0.000526579
53 *273:26 *3991:A0 0
54 *273:26 *4038:A0 2.75229e-05
55 *273:26 *4038:A1 5.30673e-05
56 *273:26 *4782:A 0.00015806
57 *273:26 *4783:A 0.000448507
58 *273:26 *429:6 1.12578e-05
59 *273:26 *1041:8 0.000150237
60 *273:38 *4061:A0 0.000285127
61 *273:38 *4061:A1 9.52646e-05
62 *273:38 *4533:RESET_B 2.58106e-05
63 *273:38 *4689:CLK 0.00027299
64 *273:38 *4757:A 0.000141606
65 *273:38 *4903:A 9.52646e-05
66 *273:38 *4952:A 0.000163204
67 *273:80 *429:6 4.38278e-05
68 *273:86 *4045:A1 0.000103464
69 *273:86 *696:48 7.763e-05
70 *273:86 *696:59 0.000168063
71 *273:86 *696:82 0.000177179
72 *273:94 *4002:A0 0.000234763
73 *273:94 *4016:A0 4.77769e-05
74 *273:94 *4040:A0 0.000269335
75 *273:94 *4040:A1 0.000340812
76 *273:94 *4045:A1 9.12494e-06
77 *273:94 *4176:C 8.64599e-05
78 *273:94 *4177:A1 0.000383682
79 *273:94 *4177:B1 2.69217e-05
80 *273:94 *4177:C1 8.28018e-06
81 *273:94 *4177:D1 0.000110494
82 *273:94 *4178:A3 8.53011e-05
83 *273:94 *4880:A 4.77807e-05
84 *273:94 *4913:A 0.000458107
85 *273:94 *696:37 7.40338e-05
86 *273:94 *696:48 4.59022e-06
87 *4022:S *273:38 0.00013994
88 *4055:B *273:10 9.18092e-05
89 *4507:D *273:10 0.00011852
90 *4534:D *273:38 0.0001249
91 *4535:D *4043:S 0
92 *4547:D *273:86 0.000269564
93 *267:30 *273:10 0.000617034
94 *267:30 *273:80 0.000178438
95 *267:30 *273:86 0.000471097
96 *267:36 *273:86 2.45601e-05
97 *268:10 *273:10 1.52776e-05
98 *268:87 *273:80 0.000178658
99 *268:87 *273:86 0.00126454
100 *268:87 *273:94 0.000157041
101 *270:18 *273:26 0.000270647
102 *271:34 *273:10 0.00015832
*RES
1 *4037:X *273:10 14.885 
2 *273:10 *273:12 12.525 
3 *273:12 *273:26 22.84 
4 *273:26 *273:38 32.425 
5 *273:38 *4041:S 1.6 
6 *273:38 *4043:S 23.195 
7 *273:26 *4042:S 1.6 
8 *273:12 *4038:S 1.96 
9 *273:10 *273:80 7.07 
10 *273:80 *273:86 23.19 
11 *273:86 *273:94 23.93 
12 *273:94 *4044:S 25.015 
13 *273:94 *4040:S 2.395 
14 *273:86 *4045:S 3.6 
15 *273:80 *4039:S 3.6 
*END

*D_NET *274 0.0290612
*CONN
*I *4048:S I *D sky130_fd_sc_hd__mux2_1
*I *4054:S I *D sky130_fd_sc_hd__mux2_1
*I *4051:S I *D sky130_fd_sc_hd__mux2_1
*I *4052:S I *D sky130_fd_sc_hd__mux2_1
*I *4047:S I *D sky130_fd_sc_hd__mux2_1
*I *4049:S I *D sky130_fd_sc_hd__mux2_1
*I *4053:S I *D sky130_fd_sc_hd__mux2_1
*I *4050:S I *D sky130_fd_sc_hd__mux2_1
*I *4046:X O *D sky130_fd_sc_hd__or3b_2
*CAP
1 *4048:S 0.00012004
2 *4054:S 0
3 *4051:S 0
4 *4052:S 0.0017683
5 *4047:S 0
6 *4049:S 0
7 *4053:S 0
8 *4050:S 0.000359542
9 *4046:X 0.000292631
10 *274:100 0.00231739
11 *274:85 0.000962437
12 *274:74 0.000725051
13 *274:50 0.00215842
14 *274:30 0.00315536
15 *274:22 0.00224088
16 *274:10 0.00160877
17 *4048:S *3991:S 0.000261326
18 *4050:S *4050:A0 0.000461941
19 *4050:S *4050:A1 2.30292e-05
20 *4050:S *1006:22 0.000342003
21 *4050:S *1015:32 8.47455e-05
22 *4052:S *4232:B 4.66108e-05
23 *4052:S *4233:A1 4.08568e-05
24 *4052:S *4506:CLK 0
25 *4052:S *4511:RESET_B 0.000181375
26 *4052:S *4518:CLK 1.91832e-05
27 *4052:S *624:93 9.20741e-05
28 *4052:S *624:104 0.000203123
29 *4052:S *624:108 3.05373e-05
30 *4052:S *624:125 4.14369e-05
31 *4052:S *634:16 0.00012173
32 *4052:S *982:151 0.000190808
33 *4052:S *1010:58 0.00013521
34 *4052:S *1017:18 7.01063e-05
35 *4052:S *1017:20 0.000155928
36 *4052:S *1017:22 0.000498316
37 *4052:S *1018:66 4.41506e-05
38 *4052:S *1018:68 1.91597e-05
39 *4052:S *1018:101 0.000194694
40 *4052:S *1028:59 0.00046193
41 *4052:S *1028:61 0.000272984
42 *4052:S *1028:63 0.000316415
43 *274:10 *4507:CLK 6.73665e-05
44 *274:10 *275:12 0
45 *274:10 *625:39 1.38422e-05
46 *274:22 *3991:S 0.000293604
47 *274:22 *4054:A1 0
48 *274:22 *4141:A1 0.000249935
49 *274:22 *4141:A2 0
50 *274:22 *4172:A 0
51 *274:22 *4178:B1 0
52 *274:22 *4539:CLK 0
53 *274:22 *4546:CLK 0
54 *274:22 *4806:A 0
55 *274:22 *4985:A 0.000166711
56 *274:22 *275:12 0
57 *274:22 *611:23 8.9386e-05
58 *274:22 *622:120 0
59 *274:22 *622:142 0
60 *274:30 *621:93 0.000315123
61 *274:30 *621:106 0.00068161
62 *274:30 *632:8 2.75229e-05
63 *274:50 *3994:A0 6.54766e-05
64 *274:50 *4031:A0 7.35729e-05
65 *274:50 *4031:A1 1.34594e-05
66 *274:50 *4053:A0 0.00011417
67 *274:50 *4053:A1 9.52646e-05
68 *274:50 *4548:CLK 0.000183043
69 *274:50 *275:36 0
70 *274:50 *621:20 0.000278556
71 *274:50 *1024:24 0
72 *274:50 *1042:61 2.46073e-05
73 *274:74 *4710:A 5.16418e-05
74 *274:74 *275:36 0
75 *274:74 *612:57 0.000386221
76 *274:85 *4129:C 9.50114e-05
77 *274:85 *612:57 3.74161e-05
78 *274:85 *902:40 1.71013e-05
79 *274:85 *1016:10 0
80 *274:85 *1016:12 0
81 *274:100 *902:36 8.5225e-05
82 *274:100 *902:40 9.76522e-05
83 *274:100 *1016:8 7.62032e-05
84 *4005:S *4052:S 0.000311277
85 *4031:S *274:50 0.000272376
86 *4034:S *4052:S 0.000153482
87 *4034:S *274:100 0.000311282
88 *4490:D *274:85 0.000467938
89 *4503:D *4052:S 3.48638e-05
90 *4507:D *274:10 0.000120186
91 *4510:D *4052:S 0.000157186
92 *4511:D *4052:S 0
93 *4518:D *4052:S 0.000461047
94 *4524:D *274:50 0
95 *4524:D *274:74 0
96 *4539:D *274:22 0
97 *4540:D *274:50 0
98 *4540:D *274:74 0
99 *4541:D *4050:S 5.30673e-05
100 *4542:D *4052:S 2.49909e-05
101 *4548:D *274:50 1.22505e-05
102 *267:30 *274:10 5.21545e-05
103 *267:46 *274:74 0.000387896
104 *267:46 *274:85 4.82863e-05
105 *268:10 *274:10 9.44791e-05
106 *270:18 *274:85 0.00104669
107 *270:18 *274:100 0.000337524
108 *272:22 *274:100 0.000879047
109 *273:10 *274:10 0.000216987
*RES
1 *4046:X *274:10 13.1 
2 *274:10 *274:22 25.045 
3 *274:22 *274:30 16.625 
4 *274:30 *274:50 32.3 
5 *274:50 *4050:S 14.315 
6 *274:50 *4053:S 1.6 
7 *274:30 *274:74 9.23 
8 *274:74 *4049:S 1.6 
9 *274:74 *274:85 14.795 
10 *274:85 *4047:S 3.6 
11 *274:85 *274:100 17.09 
12 *274:100 *4052:S 48.69 
13 *274:100 *4051:S 1.6 
14 *274:22 *4054:S 1.6 
15 *274:10 *4048:S 4.12 
*END

*D_NET *275 0.0219201
*CONN
*I *4057:S I *D sky130_fd_sc_hd__mux2_1
*I *4056:S I *D sky130_fd_sc_hd__mux2_1
*I *4060:S I *D sky130_fd_sc_hd__mux2_1
*I *4063:S I *D sky130_fd_sc_hd__mux2_1
*I *4058:S I *D sky130_fd_sc_hd__mux2_1
*I *4061:S I *D sky130_fd_sc_hd__mux2_1
*I *4059:S I *D sky130_fd_sc_hd__mux2_1
*I *4062:S I *D sky130_fd_sc_hd__mux2_1
*I *4055:X O *D sky130_fd_sc_hd__or2_2
*CAP
1 *4057:S 0.000368347
2 *4056:S 0.000260312
3 *4060:S 0
4 *4063:S 0.00164968
5 *4058:S 2.08101e-05
6 *4061:S 0.000269422
7 *4059:S 3.44213e-05
8 *4062:S 4.41766e-05
9 *4055:X 0.000700772
10 *275:81 0.00209712
11 *275:61 0.00130878
12 *275:42 0.00144888
13 *275:36 0.00146979
14 *275:30 0.00176322
15 *275:18 0.00158009
16 *275:12 0.00126908
17 *4056:S *3991:S 2.66586e-05
18 *4056:S *4056:A0 0.000105163
19 *4056:S *4141:B2 0.000249942
20 *4056:S *4985:A 0
21 *4056:S *987:59 7.70828e-05
22 *4057:S *4039:A1 0.000154098
23 *4057:S *4057:A1 3.00381e-05
24 *4057:S *987:59 0.000156364
25 *4059:S *276:23 8.65905e-05
26 *4061:S *4281:A2 0.000284995
27 *4062:S *4062:A0 5.83121e-06
28 *4062:S *4062:A1 2.8185e-05
29 *4063:S *4058:A1 1.02884e-05
30 *4063:S *4063:A0 5.49293e-05
31 *4063:S *4063:A1 4.9339e-06
32 *4063:S *4986:A 8.63479e-05
33 *4063:S *458:18 0.000125407
34 *275:12 *4046:C_N 6.69679e-05
35 *275:12 *4507:CLK 9.428e-05
36 *275:12 *625:39 8.87814e-05
37 *275:18 *4546:CLK 0.000331323
38 *275:18 *987:59 0.000304098
39 *275:30 *3991:A0 0
40 *275:30 *4129:A_N 4.82863e-05
41 *275:30 *4129:C 4.82863e-05
42 *275:30 *4133:B1 0
43 *275:30 *4133:C1 0.000198939
44 *275:30 *4141:B2 0
45 *275:30 *4530:RESET_B 5.05521e-05
46 *275:30 *4546:CLK 0.000115779
47 *275:30 *4546:RESET_B 4.06192e-05
48 *275:30 *4947:A 0.000186204
49 *275:30 *289:18 0
50 *275:30 *630:10 0
51 *275:30 *987:61 0
52 *275:30 *1009:34 6.13654e-05
53 *275:30 *1009:45 0.000104883
54 *275:36 *4237:A1 0
55 *275:36 *4548:CLK 0
56 *275:36 *4710:A 0
57 *275:36 *612:68 0.000191952
58 *275:36 *621:10 0.000160965
59 *275:36 *621:12 0.000159059
60 *275:36 *621:20 0.000139933
61 *275:42 *4062:A0 5.46798e-05
62 *275:42 *4496:RESET_B 4.27109e-05
63 *275:42 *4552:RESET_B 0.00018471
64 *275:42 *280:95 1.94723e-05
65 *275:42 *636:10 1.1392e-05
66 *275:42 *982:162 0.000333496
67 *275:61 *4004:A0 7.00115e-05
68 *275:61 *4237:A2 7.00115e-05
69 *275:61 *4281:A2 2.15738e-05
70 *275:61 *276:23 0.00121094
71 *275:61 *280:87 1.73877e-05
72 *275:61 *280:95 0.000124696
73 *275:61 *982:162 0.00031179
74 *275:61 *1042:61 4.47897e-05
75 *275:81 *4058:A0 2.69153e-05
76 *275:81 *4058:A1 1.74678e-05
77 *3994:S *4061:S 0.000284161
78 *3994:S *275:61 1.7396e-05
79 *4004:S *275:61 1.15688e-05
80 *4030:S *275:12 4.66108e-05
81 *4055:A *275:12 6.69679e-05
82 *4524:D *275:36 0.000107813
83 *4531:D *4057:S 8.49205e-05
84 *4539:D *275:12 0
85 *4546:D *275:30 9.50342e-06
86 *4547:D *4057:S 8.40269e-05
87 *4548:D *275:36 0
88 *4548:D *275:81 8.8266e-05
89 *4553:D *4063:S 0.000198945
90 *267:30 *275:12 0
91 *272:112 *275:36 0
92 *272:112 *275:42 0.000193806
93 *272:149 *275:36 0
94 *274:10 *275:12 0
95 *274:22 *275:12 0
96 *274:50 *275:36 0
97 *274:74 *275:36 0
*RES
1 *4055:X *275:12 17.375 
2 *275:12 *275:18 6.435 
3 *275:18 *275:30 22.705 
4 *275:30 *275:36 16.09 
5 *275:36 *275:42 10.865 
6 *275:42 *4062:S 4.395 
7 *275:42 *275:61 21.22 
8 *275:61 *4059:S 4.395 
9 *275:61 *4061:S 11.865 
10 *275:36 *275:81 6.315 
11 *275:81 *4058:S 1.96 
12 *275:81 *4063:S 20.275 
13 *275:30 *4060:S 1.6 
14 *275:18 *4056:S 10.61 
15 *275:12 *4057:S 8.62 
*END

*D_NET *276 0.0204394
*CONN
*I *4362:A2 I *D sky130_fd_sc_hd__a221o_2
*I *4153:A2 I *D sky130_fd_sc_hd__a22o_2
*I *4366:A2 I *D sky130_fd_sc_hd__a221o_2
*I *4173:A2 I *D sky130_fd_sc_hd__a22o_2
*I *4311:A2 I *D sky130_fd_sc_hd__a221o_2
*I *4128:X O *D sky130_fd_sc_hd__and3b_2
*CAP
1 *4362:A2 0.0010244
2 *4153:A2 0
3 *4366:A2 2.67628e-06
4 *4173:A2 0.000298669
5 *4311:A2 8.70465e-05
6 *4128:X 0
7 *276:61 0.00116505
8 *276:42 0.000700975
9 *276:23 0.00285927
10 *276:4 0.00209
11 *4173:A2 *4178:A3 0.000322295
12 *4173:A2 *4178:B2 0.000377507
13 *4173:A2 *4986:A 0.000158297
14 *4173:A2 *612:12 3.63701e-06
15 *4173:A2 *1009:45 0
16 *4173:A2 *1045:53 8.91544e-05
17 *4311:A2 *4316:B1 4.09723e-05
18 *4311:A2 *4966:A 6.35448e-05
19 *4311:A2 *987:118 3.90291e-05
20 *4311:A2 *994:50 5.93844e-05
21 *4362:A2 *4183:A1 0.000106892
22 *4362:A2 *4363:B1 2.49909e-05
23 *4362:A2 *4365:B2 0
24 *4362:A2 *381:24 0.000712389
25 *4362:A2 *1013:44 0.000189234
26 *4366:A2 *4366:A1 1.2818e-05
27 *4366:A2 *4521:CLK 1.37395e-05
28 *276:23 *4004:A0 8.18626e-05
29 *276:23 *4033:A0 6.90876e-05
30 *276:23 *4033:A1 4.43682e-05
31 *276:23 *4059:A0 0.000204739
32 *276:23 *4128:B 0.000236355
33 *276:23 *4128:C 0.000266128
34 *276:23 *4133:B1 2.04591e-05
35 *276:23 *4199:A1 7.25921e-06
36 *276:23 *4203:A1 0.000578529
37 *276:23 *4203:A2 8.65905e-05
38 *276:23 *4203:B1 3.7712e-05
39 *276:23 *4230:A 0.000535991
40 *276:23 *4237:A1 1.61831e-05
41 *276:23 *4757:A 5.30673e-05
42 *276:23 *282:49 2.23676e-05
43 *276:23 *612:10 4.09182e-05
44 *276:23 *612:12 5.28896e-05
45 *276:23 *986:42 0.000330593
46 *276:23 *1008:17 0.000653456
47 *276:23 *1009:45 0
48 *276:42 *280:81 0
49 *276:42 *280:87 0
50 *276:42 *349:16 0.00195655
51 *276:42 *986:59 0.00165669
52 *276:61 *4153:B1 4.25065e-05
53 *276:61 *280:77 0.000269111
54 *276:61 *381:24 1.66606e-05
55 *276:61 *1049:27 0.000344644
56 *4033:S *276:23 0.000239807
57 *4059:S *276:23 8.65905e-05
58 *4362:B2 *4362:A2 7.67681e-05
59 *4365:C1 *4362:A2 0.000238137
60 *4492:D *4173:A2 9.47454e-05
61 *4549:D *276:23 0.000163204
62 *267:46 *276:23 3.9442e-05
63 *272:57 *276:23 0.000223103
64 *275:61 *276:23 0.00121094
*RES
1 *4128:X *276:4 1.6 
2 *276:4 *4311:A2 8.1125 
3 *276:4 *276:23 48.7775 
4 *276:23 *4173:A2 12.5662 
5 *276:23 *276:42 3.95133 
6 *276:42 *4366:A2 3.72375 
7 *276:42 *276:61 6.485 
8 *276:61 *4153:A2 1.6 
9 *276:61 *4362:A2 26.7575 
*END

*D_NET *277 0.00100934
*CONN
*I *4133:C1 I *D sky130_fd_sc_hd__a221o_2
*I *4129:X O *D sky130_fd_sc_hd__and4b_2
*CAP
1 *4133:C1 0.000277233
2 *4129:X 0.000277233
3 *4133:C1 *4133:B1 0.000104307
4 *4133:C1 *4133:B2 5.53249e-06
5 *4133:C1 *4490:SET_B 0.000115177
6 *4133:C1 *630:10 0
7 *4133:C1 *1048:107 3.09233e-05
8 *270:18 *4133:C1 0
9 *275:30 *4133:C1 0.000198939
*RES
1 *4129:X *4133:C1 12.45 
*END

*D_NET *278 0.00200418
*CONN
*I *4478:C I *D sky130_fd_sc_hd__or4_2
*I *4130:Y O *D sky130_fd_sc_hd__nor2_2
*CAP
1 *4478:C 0.000341219
2 *4130:Y 0.000341219
3 *4478:C *4479:B1_N 9.81269e-05
4 *4478:C *4675:RESET_B 0
5 *4478:C *567:6 0.000224532
6 *4478:C *980:12 1.33293e-05
7 *4478:C *1019:26 6.70554e-05
8 *4478:C *1020:20 5.22304e-05
9 *4478:C *1026:16 0.000654859
10 *4478:C *1029:25 0
11 *4478:C *1029:45 0.000140852
12 *4478:C *1130:27 1.12578e-05
13 *4478:A *4478:C 5.94962e-05
*RES
1 *4130:Y *4478:C 17.16 
*END

*D_NET *279 0.00757013
*CONN
*I *4243:A2 I *D sky130_fd_sc_hd__a221o_2
*I *4744:A I *D sky130_fd_sc_hd__clkdlybuf4s25_1
*I *5064:A I *D sky130_fd_sc_hd__clkbuf_2
*I *4131:Y O *D sky130_fd_sc_hd__nor3_2
*CAP
1 *4243:A2 0.000291394
2 *4744:A 0.00078498
3 *5064:A 0.000195479
4 *4131:Y 0.000122704
5 *279:21 0.00123425
6 *279:10 0.000476063
7 *4243:A2 *4116:A0 0.000225626
8 *4243:A2 *4124:A1 0.000175207
9 *4243:A2 *4243:A1 5.20437e-05
10 *4243:A2 *4243:B2 2.66464e-05
11 *4243:A2 *4248:A2 0.000247567
12 *4243:A2 *4248:B1 0.000320115
13 *4243:A2 *392:18 0
14 *4243:A2 *1108:19 0.000116158
15 *4243:A2 *1130:29 0.000478509
16 *4744:A *4161:A1 0.000157595
17 *4744:A *4161:B2 5.93588e-05
18 *4744:A *4727:A 0.00042453
19 *4744:A *626:97 0.000455634
20 *4744:A *626:112 0.000497676
21 *4744:A *1019:89 0
22 *5064:A *4614:D 3.51072e-05
23 *5064:A *988:10 0.000421923
24 *279:10 *4181:D 7.81954e-05
25 *279:10 *4610:RESET_B 0
26 *279:10 *1026:69 5.06989e-05
27 *279:21 *4124:A1 0.000182055
28 *279:21 *4181:D 0.000131662
29 *279:21 *4248:A2 8.20779e-05
30 *279:21 *4610:RESET_B 0
31 *279:21 *4614:D 0.000246872
32 *279:21 *392:18 0
*RES
1 *4131:Y *279:10 6.03 
2 *279:10 *5064:A 8.19 
3 *279:10 *279:21 4.95 
4 *279:21 *4744:A 22.54 
5 *279:21 *4243:A2 14.1337 
*END

*D_NET *280 0.032513
*CONN
*I *4363:A2 I *D sky130_fd_sc_hd__a21oi_2
*I *4368:A2 I *D sky130_fd_sc_hd__a21o_2
*I *4153:B1 I *D sky130_fd_sc_hd__a22o_2
*I *4133:B1 I *D sky130_fd_sc_hd__a221o_2
*I *4231:A2 I *D sky130_fd_sc_hd__a22o_2
*I *4268:A2 I *D sky130_fd_sc_hd__a22o_2
*I *4331:A2 I *D sky130_fd_sc_hd__a221o_2
*I *4146:A2 I *D sky130_fd_sc_hd__a22o_2
*I *4161:A2 I *D sky130_fd_sc_hd__a22o_2
*I *4132:X O *D sky130_fd_sc_hd__and3b_2
*CAP
1 *4363:A2 0
2 *4368:A2 2.11135e-05
3 *4153:B1 3.59725e-05
4 *4133:B1 0.000326497
5 *4231:A2 4.53842e-06
6 *4268:A2 0.000881011
7 *4331:A2 0
8 *4146:A2 1.16111e-06
9 *4161:A2 0.00039883
10 *4132:X 0.00189656
11 *280:95 0.00184267
12 *280:87 0.00227458
13 *280:81 0.00257126
14 *280:77 0.00192692
15 *280:69 0.0017821
16 *280:51 0.00153511
17 *280:34 0.00222758
18 *4133:B1 *612:10 6.44676e-05
19 *4133:B1 *630:10 0.000139924
20 *4133:B1 *986:42 0
21 *4133:B1 *1009:45 0
22 *4146:A2 *626:42 8.5108e-06
23 *4153:B1 *4704:A 1.07797e-05
24 *4153:B1 *4916:A 5.8678e-05
25 *4161:A2 *4131:A 0.000274654
26 *4161:A2 *4168:A1 0
27 *4161:A2 *297:12 8.43862e-05
28 *4161:A2 *307:10 0
29 *4161:A2 *982:10 2.97004e-06
30 *4161:A2 *982:34 2.66418e-05
31 *4161:A2 *1019:52 1.45064e-05
32 *4161:A2 *1019:54 8.47629e-05
33 *4161:A2 *1019:60 0.000205388
34 *4161:A2 *1026:55 0.000124895
35 *4231:A2 *982:162 1.2818e-05
36 *4268:A2 *4006:A1 1.56428e-05
37 *4268:A2 *4053:A0 6.4428e-05
38 *4268:A2 *4268:A1 6.409e-05
39 *4268:A2 *4268:B1 0.000562005
40 *4268:A2 *4331:B1 4.77807e-05
41 *4268:A2 *4331:B2 3.79621e-05
42 *4268:A2 *4336:B1 3.13494e-05
43 *4268:A2 *5089:A 0.000110612
44 *4268:A2 *1039:121 8.33066e-06
45 *4268:A2 *1039:130 0.000318407
46 *280:34 *4148:A1 8.40213e-05
47 *280:34 *4148:A2 1.68332e-05
48 *280:34 *4148:B1 1.33293e-05
49 *280:34 *4148:B2 3.52139e-06
50 *280:34 *4149:A3 0.000238493
51 *280:34 *4184:B1 7.20828e-05
52 *280:34 *294:10 0.000187197
53 *280:34 *295:16 2.8585e-06
54 *280:34 *297:12 0.00127967
55 *280:34 *626:42 3.75272e-05
56 *280:34 *969:33 1.83756e-05
57 *280:34 *969:44 1.9415e-05
58 *280:51 *4104:A1 0
59 *280:51 *4127:A1 0.000287349
60 *280:51 *4363:A1 1.3527e-05
61 *280:51 *4364:C1 0.000258312
62 *280:51 *4369:C1 5.5724e-05
63 *280:51 *4609:RESET_B 9.03502e-05
64 *280:51 *4610:CLK 5.94884e-05
65 *280:51 *4697:A 0
66 *280:51 *4978:A 0.000247293
67 *280:51 *296:12 0
68 *280:51 *626:42 2.1551e-05
69 *280:51 *901:8 0
70 *280:69 *4095:S 0.000419409
71 *280:69 *4184:A2 0.000589534
72 *280:69 *4363:A1 4.89395e-05
73 *280:69 *4585:D 3.62299e-05
74 *280:69 *4697:A 0.000627467
75 *280:69 *618:8 0.000394996
76 *280:69 *618:97 0.000341439
77 *280:69 *618:106 7.32625e-05
78 *280:69 *698:71 0
79 *280:69 *986:65 0.000170631
80 *280:77 *4368:A1 8.9336e-05
81 *280:77 *4369:B2 4.77769e-05
82 *280:77 *4545:RESET_B 0
83 *280:77 *4916:A 0.000122354
84 *280:77 *645:12 0.000116158
85 *280:77 *677:6 0.000118039
86 *280:77 *685:10 3.2071e-05
87 *280:77 *986:65 4.40693e-06
88 *280:77 *1046:50 0
89 *280:77 *1049:27 0.000347786
90 *280:81 *4704:A 0.000101392
91 *280:81 *360:16 0.000682408
92 *280:81 *611:23 0.000505119
93 *280:81 *986:59 0.000154657
94 *280:87 *4231:A1 0.000119375
95 *280:87 *349:16 0
96 *280:87 *360:16 0.000246204
97 *280:87 *986:31 0.000546495
98 *280:95 *4062:A0 0.000520943
99 *280:95 *4231:A1 9.50342e-06
100 *280:95 *4335:A2 0.000851404
101 *280:95 *4336:A1 5.83121e-06
102 *280:95 *4336:A2 2.62526e-05
103 *280:95 *4336:B1 0.000470461
104 *280:95 *982:151 8.09021e-06
105 *4004:S *280:87 8.17606e-05
106 *4133:C1 *4133:B1 0.000104307
107 *4364:A1 *280:51 0
108 *4536:D *4268:A2 9.51579e-05
109 *4610:D *280:34 7.21296e-06
110 *4954:A *280:69 8.33066e-06
111 *4965:A *280:51 0.000508052
112 *4979:A *280:69 0.000272903
113 *267:54 *4231:A2 6.8725e-06
114 *270:18 *4133:B1 0
115 *272:68 *280:95 0
116 *275:30 *4133:B1 0
117 *275:42 *280:95 1.94723e-05
118 *275:61 *280:87 1.73877e-05
119 *275:61 *280:95 0.000124696
120 *276:23 *4133:B1 2.04591e-05
121 *276:42 *280:81 0
122 *276:42 *280:87 0
123 *276:61 *4153:B1 4.25065e-05
124 *276:61 *280:77 0.000269111
*RES
1 *4132:X *4161:A2 16.575 
2 *4132:X *280:34 26.84 
3 *280:34 *4146:A2 1.7275 
4 *280:34 *280:51 21.43 
5 *280:51 *280:69 25.675 
6 *280:69 *280:77 19.0175 
7 *280:77 *280:81 3.21827 
8 *280:81 *280:87 4.55097 
9 *280:87 *280:95 23.9562 
10 *280:95 *4331:A2 1.6 
11 *280:95 *4268:A2 23.3638 
12 *280:87 *4231:A2 3.72375 
13 *280:81 *4133:B1 10.7075 
14 *280:77 *4153:B1 4.5975 
15 *280:69 *4368:A2 1.96 
16 *280:51 *4363:A2 1.6 
*END

*D_NET *281 0.000221963
*CONN
*I *4141:B1 I *D sky130_fd_sc_hd__o22ai_2
*I *4133:X O *D sky130_fd_sc_hd__a221o_2
*CAP
1 *4141:B1 6.65046e-05
2 *4133:X 6.65046e-05
3 *4141:B1 *4133:A2 8.8954e-05
*RES
1 *4133:X *4141:B1 4.61 
*END

*D_NET *282 0.0138501
*CONN
*I *4285:A2 I *D sky130_fd_sc_hd__a2111o_2
*I *5063:A I *D sky130_fd_sc_hd__buf_2
*I *4203:A2 I *D sky130_fd_sc_hd__a2111o_2
*I *4272:A2 I *D sky130_fd_sc_hd__a2111o_2
*I *4210:B1 I *D sky130_fd_sc_hd__a221oi_2
*I *4134:Y O *D sky130_fd_sc_hd__nor3b_4
*CAP
1 *4285:A2 0.000665195
2 *5063:A 0.000554217
3 *4203:A2 4.86326e-05
4 *4272:A2 0.000653939
5 *4210:B1 0.000248358
6 *4134:Y 0.000528438
7 *282:66 0.0013468
8 *282:49 0.00153731
9 *282:34 0.00229531
10 *4203:A2 *4128:C 4.91763e-05
11 *4203:A2 *4203:B1 4.82863e-05
12 *4203:A2 *4203:C1 0
13 *4203:A2 *1043:59 7.37496e-05
14 *4210:B1 *4134:A 0.00035381
15 *4210:B1 *4134:B 0.000137571
16 *4210:B1 *4210:A1 1.91597e-05
17 *4210:B1 *4210:A2 9.08126e-05
18 *4210:B1 *4559:CLK 0
19 *4210:B1 *1059:6 2.49909e-05
20 *4272:A2 *4110:S 0.00013687
21 *4272:A2 *4270:D_N 0.000528123
22 *4272:A2 *4272:B1 1.01661e-05
23 *4272:A2 *4272:D1 0.000148989
24 *4272:A2 *4310:D 0
25 *4272:A2 *4600:RESET_B 0.000262509
26 *4272:A2 *4693:A 0.000154987
27 *4272:A2 *4943:A 0
28 *4272:A2 *5045:A 0.00023973
29 *4285:A2 *4282:A1 9.3062e-06
30 *4285:A2 *4285:A1 4.82919e-05
31 *4285:A2 *4779:A 8.47629e-05
32 *4285:A2 *1006:59 0
33 *4285:A2 *1007:16 4.82919e-05
34 *4285:A2 *1007:123 0.00142708
35 *5063:A *4203:C1 0.000161529
36 *5063:A *4501:RESET_B 0.000194816
37 *282:34 *4069:A0 0.000103192
38 *282:34 *4270:D_N 5.7344e-05
39 *282:34 *1061:10 7.70938e-05
40 *282:49 *4118:A0 1.04258e-05
41 *282:49 *4128:C 0.000759281
42 *282:49 *5045:A 2.49909e-05
43 *282:49 *360:16 0.000108366
44 *282:66 *4203:C1 0
45 *282:66 *1007:123 8.53113e-06
46 *282:66 *1043:59 2.30415e-05
47 *4005:S *4285:A2 0
48 *4501:D *4285:A2 0.000120186
49 *4944:A *4272:A2 0.000317507
50 *276:23 *4203:A2 8.65905e-05
51 *276:23 *282:49 2.23676e-05
*RES
1 *4134:Y *4210:B1 16.795 
2 *4134:Y *282:34 9 
3 *282:34 *4272:A2 22.575 
4 *282:34 *282:49 20.32 
5 *282:49 *4203:A2 5.265 
6 *282:49 *282:66 1.77 
7 *282:66 *5063:A 10.98 
8 *282:66 *4285:A2 20.985 
*END

*D_NET *283 0.000479636
*CONN
*I *4140:C1 I *D sky130_fd_sc_hd__a2111o_2
*I *4135:X O *D sky130_fd_sc_hd__and4bb_2
*CAP
1 *4140:C1 9.90536e-05
2 *4135:X 9.90536e-05
3 *4140:C1 *4139:A_N 0.000122331
4 *4140:C1 *4140:B1 5.05521e-05
5 *4140:C1 *4141:B2 1.47256e-05
6 *4140:C1 *4506:SET_B 2.15594e-05
7 *4140:C1 *1009:24 7.23602e-05
8 *4140:C1 *1024:12 0
*RES
1 *4135:X *4140:C1 9.72 
*END

*D_NET *284 0.000438879
*CONN
*I *4140:D1 I *D sky130_fd_sc_hd__a2111o_2
*I *4136:X O *D sky130_fd_sc_hd__o211a_2
*CAP
1 *4140:D1 5.79638e-05
2 *4136:X 5.79638e-05
3 *4140:D1 *4139:A_N 0.000112349
4 *4140:D1 *4141:B2 0.000124007
5 *4140:D1 *1016:115 8.65961e-05
*RES
1 *4136:X *4140:D1 5.03 
*END

*D_NET *285 0.0158077
*CONN
*I *5062:A I *D sky130_fd_sc_hd__buf_2
*I *4243:B1 I *D sky130_fd_sc_hd__a221o_2
*I *4146:B1 I *D sky130_fd_sc_hd__a22o_2
*I *4140:A2 I *D sky130_fd_sc_hd__a2111o_2
*I *4137:Y O *D sky130_fd_sc_hd__nor3b_4
*CAP
1 *5062:A 0
2 *4243:B1 0.00100298
3 *4146:B1 8.80878e-05
4 *4140:A2 0.00153077
5 *4137:Y 0.0016176
6 *285:38 0.00163648
7 *285:32 0.000632233
8 *4140:A2 *4020:A0 8.00033e-05
9 *4140:A2 *4137:A 8.97832e-05
10 *4140:A2 *4506:SET_B 3.33161e-05
11 *4140:A2 *4759:A 0.000364226
12 *4140:A2 *4766:A 0.00206473
13 *4140:A2 *982:85 0.000131861
14 *4140:A2 *1010:24 0.00020415
15 *4140:A2 *1024:20 3.07395e-05
16 *4140:A2 *1029:105 5.72829e-05
17 *4146:B1 *4146:A1 0.000117711
18 *4243:B1 *4181:D 0
19 *4243:B1 *4242:B 0
20 *4243:B1 *4243:B2 9.50342e-06
21 *4243:B1 *4243:C1 4.92014e-05
22 *4243:B1 *4987:A 0.000104203
23 *4243:B1 *305:16 0.00129434
24 *4243:B1 *429:22 0
25 *4243:B1 *958:29 0.000860718
26 *4243:B1 *969:33 1.95991e-05
27 *4243:B1 *969:70 0.000139288
28 *4243:B1 *1005:46 0
29 *4243:B1 *1026:69 0
30 *285:32 *1013:42 0
31 *285:38 *4152:A 0
32 *285:38 *4578:D 0
33 *285:38 *305:16 0.0014108
34 *285:38 *631:8 0
35 *285:38 *958:29 0.0013711
36 *285:38 *985:16 3.86607e-05
37 *285:38 *1013:42 0
38 *4026:S *4140:A2 0.000781653
39 *4515:D *4140:A2 1.88602e-05
40 *3:30 *4140:A2 0
41 *255:18 *4243:B1 0
42 *270:131 *4140:A2 2.77993e-05
*RES
1 *4137:Y *4140:A2 23.1201 
2 *4137:Y *285:32 4.98 
3 *285:32 *285:38 5.1631 
4 *285:38 *4146:B1 5.6075 
5 *285:38 *4243:B1 16.7483 
6 *285:32 *5062:A 3.6 
*END

*D_NET *286 0.00390228
*CONN
*I *4743:A I *D sky130_fd_sc_hd__clkdlybuf4s25_1
*I *4247:A2 I *D sky130_fd_sc_hd__a2111o_2
*I *5061:A I *D sky130_fd_sc_hd__clkbuf_2
*I *4138:Y O *D sky130_fd_sc_hd__nor3b_2
*CAP
1 *4743:A 1.25806e-05
2 *4247:A2 0.000422614
3 *5061:A 0
4 *4138:Y 0.000134391
5 *286:21 0.000497786
6 *286:10 0.000196982
7 *4247:A2 *4124:S 7.13392e-05
8 *4247:A2 *4160:A 0.000671108
9 *4247:A2 *4248:A1 9.23395e-05
10 *4247:A2 *4598:RESET_B 0.000112803
11 *4247:A2 *4606:CLK 0.000159964
12 *4247:A2 *4614:RESET_B 0.000270415
13 *4247:A2 *4959:A 9.34773e-06
14 *4247:A2 *626:97 4.82919e-05
15 *4247:A2 *626:112 0.000220453
16 *4247:A2 *1003:46 4.66108e-05
17 *4247:A2 *1003:50 8.6076e-05
18 *4247:A2 *1011:80 0.000134246
19 *4247:A2 *1011:94 0.000121811
20 *4743:A *4614:RESET_B 7.57202e-05
21 *4743:A *626:112 8.65961e-05
22 *286:10 *1011:32 0.00011398
23 *286:10 *1011:38 4.13171e-05
24 *286:10 *1019:54 9.19589e-05
25 *286:10 *1019:60 1.7396e-05
26 *286:10 *1026:36 4.82863e-05
27 *286:21 *1011:32 6.7286e-05
28 *286:21 *1019:54 1.43521e-05
29 *286:21 *1019:89 3.6229e-05
*RES
1 *4138:Y *286:10 7.215 
2 *286:10 *5061:A 3.6 
3 *286:10 *286:21 3.635 
4 *286:21 *4247:A2 19.82 
5 *286:21 *4743:A 2.395 
*END

*D_NET *287 0.000517664
*CONN
*I *4140:B1 I *D sky130_fd_sc_hd__a2111o_2
*I *4139:X O *D sky130_fd_sc_hd__and4bb_2
*CAP
1 *4140:B1 8.69126e-05
2 *4139:X 8.69126e-05
3 *4140:B1 *4139:A_N 3.30597e-05
4 *4140:B1 *4139:B_N 3.64998e-06
5 *4140:B1 *4140:A1 2.10034e-05
6 *4140:B1 *4141:B2 0.000235573
7 *4140:C1 *4140:B1 5.05521e-05
*RES
1 *4139:X *4140:B1 6.095 
*END

*D_NET *288 0.00353595
*CONN
*I *4141:B2 I *D sky130_fd_sc_hd__o22ai_2
*I *4140:X O *D sky130_fd_sc_hd__a2111o_2
*CAP
1 *4141:B2 0.000942974
2 *4140:X 0.000942974
3 *4141:B2 *4029:A1 0.000103398
4 *4141:B2 *4139:A_N 9.27255e-06
5 *4141:B2 *4139:B_N 2.62017e-05
6 *4141:B2 *4139:D 3.03578e-05
7 *4141:B2 *4765:A 0.000137571
8 *4141:B2 *289:18 3.25831e-05
9 *4141:B2 *987:59 5.2124e-05
10 *4141:B2 *987:61 2.4997e-05
11 *4141:B2 *1018:16 0.000348137
12 *4141:B2 *1048:58 0.000261115
13 *4056:S *4141:B2 0.000249942
14 *4140:B1 *4141:B2 0.000235573
15 *4140:C1 *4141:B2 1.47256e-05
16 *4140:D1 *4141:B2 0.000124007
17 *4546:D *4141:B2 0
18 *272:16 *4141:B2 0
19 *272:22 *4141:B2 0
20 *275:30 *4141:B2 0
*RES
1 *4140:X *4141:B2 26.01 
*END

*D_NET *289 0.0159505
*CONN
*I *5059:A I *D sky130_fd_sc_hd__buf_2
*I *4319:B2 I *D sky130_fd_sc_hd__o22a_2
*I *4274:A I *D sky130_fd_sc_hd__nor2_2
*I *4364:B1 I *D sky130_fd_sc_hd__a211o_2
*I *4141:Y O *D sky130_fd_sc_hd__o22ai_2
*CAP
1 *5059:A 0.000342654
2 *4319:B2 0
3 *4274:A 0.000167214
4 *4364:B1 1.90984e-05
5 *4141:Y 0.00257503
6 *289:49 0.000504789
7 *289:37 0.00151667
8 *289:20 0.00138615
9 *289:18 0.00310563
10 *4274:A *4274:B 0.000161474
11 *4274:A *4320:B1 0
12 *4274:A *847:39 8.14511e-05
13 *5059:A *4338:A 2.33708e-05
14 *5059:A *4338:B 7.78207e-05
15 *5059:A *4371:S 0.000154981
16 *289:18 *3992:A0 3.06659e-05
17 *289:18 *4039:A1 3.1562e-06
18 *289:18 *4133:A2 4.11678e-06
19 *289:18 *4141:A1 0.000145184
20 *289:18 *4158:A2 0.000461935
21 *289:18 *4158:A3 1.34503e-05
22 *289:18 *4531:SET_B 0.000116497
23 *289:18 *4578:D 6.59891e-05
24 *289:18 *4819:A 0.000165698
25 *289:18 *4983:A 6.97034e-05
26 *289:18 *985:16 8.58339e-06
27 *289:18 *987:61 7.61149e-05
28 *289:18 *1013:42 0.000297771
29 *289:18 *1013:44 0.000138264
30 *289:20 *4364:C1 0.000122337
31 *289:20 *4586:D 8.8266e-05
32 *289:20 *4697:A 0.000275553
33 *289:37 *3964:A 1.52184e-05
34 *289:37 *4184:B1 0.00052255
35 *289:37 *4374:A 0.000680601
36 *289:37 *4697:A 0.000272978
37 *289:37 *4964:A 0.000366749
38 *289:37 *702:28 0
39 *289:37 *1005:59 0
40 *289:37 *1119:6 8.49205e-05
41 *289:49 *4319:B1 8.23188e-05
42 *289:49 *4375:B 0.000118527
43 *289:49 *4377:B 1.59888e-05
44 *289:49 *847:39 1.18308e-05
45 *289:49 *914:29 8.70881e-05
46 *289:49 *969:46 0.000140617
47 *289:49 *988:10 0.000363667
48 *4141:B2 *289:18 3.25831e-05
49 *4365:C1 *4364:B1 4.00541e-06
50 *4365:C1 *289:20 0.000697115
51 *4365:C1 *289:37 5.68633e-05
52 *255:18 *289:18 3.82741e-05
53 *256:18 *289:37 0.00015896
54 *275:30 *289:18 0
*RES
1 *4141:Y *289:18 42.69 
2 *289:18 *289:20 11.835 
3 *289:20 *4364:B1 1.96 
4 *289:20 *289:37 22.51 
5 *289:37 *289:49 14.01 
6 *289:49 *4274:A 6.975 
7 *289:49 *4319:B2 3.6 
8 *289:37 *5059:A 6.835 
*END

*D_NET *290 0.00283522
*CONN
*I *4149:A1 I *D sky130_fd_sc_hd__o32ai_2
*I *4148:A1 I *D sky130_fd_sc_hd__o32a_2
*I *4142:X O *D sky130_fd_sc_hd__and2_2
*CAP
1 *4149:A1 0.00017323
2 *4148:A1 7.77474e-05
3 *4142:X 0.000271222
4 *290:12 0.000522199
5 *4148:A1 *4149:A3 4.87465e-06
6 *4148:A1 *4184:B1 1.7635e-05
7 *4148:A1 *4610:CLK 9.58678e-06
8 *4148:A1 *294:10 1.47347e-05
9 *4148:A1 *295:16 6.18004e-05
10 *4149:A1 *4149:A2 0.000292788
11 *4149:A1 *4183:C1 1.88602e-05
12 *4149:A1 *969:33 0.000437563
13 *4149:A1 *1021:139 1.88602e-05
14 *290:12 *4104:A1 5.55254e-05
15 *290:12 *4146:B2 3.54895e-05
16 *290:12 *969:33 0.000531968
17 *255:18 *4149:A1 4.0129e-05
18 *255:18 *290:12 0.00016698
19 *280:34 *4148:A1 8.40213e-05
*RES
1 *4142:X *290:12 6.40297 
2 *290:12 *4148:A1 5.8325 
3 *290:12 *4149:A1 5.01143 
*END

*D_NET *291 0.000428858
*CONN
*I *4147:B1 I *D sky130_fd_sc_hd__a2111o_2
*I *4143:X O *D sky130_fd_sc_hd__o211a_2
*CAP
1 *4147:B1 0.000118331
2 *4143:X 0.000118331
3 *4147:B1 *4143:A1 9.5433e-05
4 *4147:B1 *4147:C1 9.50342e-06
5 *4147:B1 *1013:19 4.9968e-05
6 *4147:B1 *1021:52 3.72916e-05
*RES
1 *4143:X *4147:B1 9.63 
*END

*D_NET *292 0.00039218
*CONN
*I *4147:C1 I *D sky130_fd_sc_hd__a2111o_2
*I *4144:X O *D sky130_fd_sc_hd__and4bb_2
*CAP
1 *4147:C1 9.96583e-05
2 *4144:X 9.96583e-05
3 *4147:C1 *429:22 4.75576e-05
4 *4147:C1 *1013:6 4.82919e-05
5 *4147:C1 *1013:17 3.86607e-05
6 *4147:C1 *1013:19 3.23391e-05
7 *4147:C1 *1021:52 1.65105e-05
8 *4147:B1 *4147:C1 9.50342e-06
*RES
1 *4144:X *4147:C1 9.285 
*END

*D_NET *293 0.000546005
*CONN
*I *4147:D1 I *D sky130_fd_sc_hd__a2111o_2
*I *4145:X O *D sky130_fd_sc_hd__and4b_2
*CAP
1 *4147:D1 3.40836e-05
2 *4145:X 3.40836e-05
3 *4147:D1 *987:24 0.000238919
4 *4147:D1 *1029:65 0.000238919
*RES
1 *4145:X *4147:D1 5.375 
*END

*D_NET *294 0.00147505
*CONN
*I *4148:A2 I *D sky130_fd_sc_hd__o32a_2
*I *4149:A2 I *D sky130_fd_sc_hd__o32ai_2
*I *4146:X O *D sky130_fd_sc_hd__a22o_2
*CAP
1 *4148:A2 1.5666e-05
2 *4149:A2 0.000155825
3 *4146:X 0.00010201
4 *294:10 0.000273501
5 *4149:A2 *4697:A 3.99395e-05
6 *4149:A2 *969:33 5.9477e-05
7 *4149:A2 *983:20 3.99395e-05
8 *294:10 *295:16 1.03323e-05
9 *294:10 *296:12 4.66108e-05
10 *4148:A1 *294:10 1.47347e-05
11 *4149:A1 *4149:A2 0.000292788
12 *4610:D *4148:A2 4.0031e-05
13 *4610:D *294:10 1.79536e-05
14 *255:18 *4149:A2 0.000162212
15 *280:34 *4148:A2 1.68332e-05
16 *280:34 *294:10 0.000187197
*RES
1 *4146:X *294:10 6.0075 
2 *294:10 *4149:A2 5.70817 
3 *294:10 *4148:A2 4.0875 
*END

*D_NET *295 0.00331724
*CONN
*I *4148:A3 I *D sky130_fd_sc_hd__o32a_2
*I *4149:A3 I *D sky130_fd_sc_hd__o32ai_2
*I *4147:X O *D sky130_fd_sc_hd__a2111o_2
*CAP
1 *4148:A3 0
2 *4149:A3 0.000164435
3 *4147:X 0.000649914
4 *295:16 0.000814348
5 *4149:A3 *4148:B1 0.000191537
6 *4149:A3 *4148:B2 4.06977e-05
7 *4149:A3 *969:44 4.00541e-06
8 *295:16 *4104:S 0
9 *295:16 *4148:B2 5.29198e-05
10 *295:16 *4184:B1 0.000299236
11 *295:16 *626:25 0
12 *295:16 *987:24 0.000393024
13 *295:16 *999:16 0.000312083
14 *4148:A1 *4149:A3 4.87465e-06
15 *4148:A1 *295:16 6.18004e-05
16 *4610:D *295:16 7.66792e-05
17 *280:34 *4149:A3 0.000238493
18 *280:34 *295:16 2.8585e-06
19 *294:10 *295:16 1.03323e-05
*RES
1 *4147:X *295:16 17.9 
2 *295:16 *4149:A3 6.22 
3 *295:16 *4148:A3 1.6 
*END

*D_NET *296 0.0143613
*CONN
*I *4239:B2 I *D sky130_fd_sc_hd__a2bb2o_2
*I *4287:A I *D sky130_fd_sc_hd__and2_2
*I *4369:C1 I *D sky130_fd_sc_hd__o221a_2
*I *4148:X O *D sky130_fd_sc_hd__o32a_2
*CAP
1 *4239:B2 0.000751128
2 *4287:A 7.85734e-05
3 *4369:C1 0.00169716
4 *4148:X 0.000303561
5 *296:39 0.0023077
6 *296:12 0.00347871
7 *4239:B2 *4339:A1_N 0.000552715
8 *4239:B2 *4339:A2_N 0.000447925
9 *4239:B2 *4339:B1 4.82863e-05
10 *4239:B2 *4340:B1 4.66108e-05
11 *4239:B2 *4379:A 0
12 *4239:B2 *4379:B 0
13 *4239:B2 *5090:A 5.45793e-05
14 *4239:B2 *297:19 1.66669e-05
15 *4239:B2 *333:25 0.000284649
16 *4239:B2 *333:40 0.000120393
17 *4239:B2 *381:73 4.82919e-05
18 *4239:B2 *469:12 0.000183457
19 *4239:B2 *705:38 2.59981e-05
20 *4239:B2 *869:22 2.55587e-05
21 *4287:A *4324:A 8.51879e-05
22 *4287:A *4339:A2_N 1.01155e-05
23 *4287:A *4380:B 0.000112123
24 *4287:A *479:10 8.23457e-05
25 *4287:A *705:38 7.17811e-05
26 *4369:C1 *3998:A0 0.000298666
27 *4369:C1 *4362:A1 0.000289983
28 *4369:C1 *4374:A 3.00381e-05
29 *4369:C1 *4609:CLK 9.02259e-05
30 *4369:C1 *4609:RESET_B 0.000143494
31 *4369:C1 *4750:A 4.41506e-05
32 *4369:C1 *4953:A 4.66108e-05
33 *4369:C1 *906:10 0.00014785
34 *4369:C1 *947:34 0.000131658
35 *4369:C1 *998:63 0
36 *296:12 *4184:B1 0.000229752
37 *296:12 *4610:CLK 5.90469e-05
38 *296:39 *4327:A2_N 1.19928e-05
39 *296:39 *4327:B2 6.52181e-05
40 *296:39 *4339:A2_N 8.49205e-05
41 *296:39 *4371:A1 4.82919e-05
42 *296:39 *4380:B 4.66108e-05
43 *296:39 *4750:A 0.000178473
44 *296:39 *5056:A 0.000272569
45 *296:39 *349:20 9.99636e-06
46 *296:39 *469:12 9.11723e-05
47 *296:39 *611:49 2.97473e-05
48 *296:39 *1005:46 0.000255674
49 *4364:A1 *4369:C1 0.000417063
50 *4364:A1 *296:12 0.000247581
51 *4965:A *4369:C1 0.00015466
52 *280:51 *4369:C1 5.5724e-05
53 *280:51 *296:12 0
54 *294:10 *296:12 4.66108e-05
*RES
1 *4148:X *296:12 12.275 
2 *296:12 *4369:C1 35.09 
3 *296:12 *296:39 21.2 
4 *296:39 *4287:A 6.03 
5 *296:39 *4239:B2 20.685 
*END

*D_NET *297 0.0087208
*CONN
*I *5058:A I *D sky130_fd_sc_hd__clkbuf_2
*I *4205:A I *D sky130_fd_sc_hd__nor2_2
*I *4339:B2 I *D sky130_fd_sc_hd__o2bb2a_2
*I *4149:Y O *D sky130_fd_sc_hd__o32ai_2
*CAP
1 *5058:A 0.000223564
2 *4205:A 0.000124288
3 *4339:B2 0
4 *4149:Y 0.000688906
5 *297:19 0.00178234
6 *297:12 0.00212339
7 *4205:A *4290:B2 0
8 *4205:A *314:27 0
9 *4205:A *350:8 4.75576e-05
10 *4205:A *362:10 0
11 *5058:A *903:31 8.3193e-05
12 *5058:A *903:44 0
13 *297:12 *4149:B2 7.10578e-05
14 *297:12 *360:44 0
15 *297:12 *392:31 0
16 *297:12 *705:38 9.84962e-05
17 *297:12 *969:44 8.87273e-05
18 *297:12 *1026:55 0.00048613
19 *297:12 *1026:69 0.000383509
20 *297:19 *4239:A1_N 3.84487e-05
21 *297:19 *4339:A1_N 4.81878e-05
22 *297:19 *333:25 0.000541742
23 *297:19 *333:40 0.000131069
24 *297:19 *381:73 3.0807e-05
25 *297:19 *469:12 0.000124895
26 *297:19 *869:22 6.17517e-07
27 *297:19 *903:31 0.000223147
28 *4161:A2 *297:12 8.43862e-05
29 *4239:B2 *297:19 1.66669e-05
30 *280:34 *297:12 0.00127967
*RES
1 *4149:Y *297:12 24.71 
2 *297:12 *4339:B2 1.6 
3 *297:12 *297:19 18.735 
4 *297:19 *4205:A 7.235 
5 *297:19 *5058:A 4.645 
*END

*D_NET *298 0.0043488
*CONN
*I *4151:A0 I *D sky130_fd_sc_hd__mux2_1
*I *4189:A I *D sky130_fd_sc_hd__or3_2
*I *4150:Y O *D sky130_fd_sc_hd__nor2_2
*CAP
1 *4151:A0 0.00130932
2 *4189:A 0.000303856
3 *4150:Y 4.23943e-05
4 *298:8 0.00165557
5 *4151:A0 *4151:A1 4.82863e-05
6 *4151:A0 *4170:A 0
7 *4151:A0 *4171:A0 0.000480814
8 *4151:A0 *4619:RESET_B 0.000105995
9 *4151:A0 *5020:A 0
10 *4189:A *4150:B 4.18603e-06
11 *4189:A *4169:B 0.000284274
12 *4189:A *4170:A 0
13 *298:8 *615:134 8.65905e-05
14 *4618:D *4151:A0 2.75145e-05
*RES
1 *4150:Y *298:8 4.395 
2 *298:8 *4189:A 8.94 
3 *298:8 *4151:A0 29.35 
*END

*D_NET *299 0.000233696
*CONN
*I *4158:A1 I *D sky130_fd_sc_hd__o32ai_4
*I *4152:X O *D sky130_fd_sc_hd__and2_2
*CAP
1 *4158:A1 6.62916e-05
2 *4152:X 6.62916e-05
3 *4158:A1 *4152:A 4.63702e-05
4 *4158:A1 *631:8 4.18603e-06
5 *4026:S *4158:A1 5.05562e-05
*RES
1 *4152:X *4158:A1 8.835 
*END

*D_NET *300 0.00252527
*CONN
*I *4158:A2 I *D sky130_fd_sc_hd__o32ai_4
*I *4153:X O *D sky130_fd_sc_hd__a22o_2
*CAP
1 *4158:A2 0.000617285
2 *4153:X 0.000617285
3 *4158:A2 *4158:A3 0.000118306
4 *4158:A2 *4158:B1 8.65961e-05
5 *4158:A2 *4369:A2 9.61119e-05
6 *4158:A2 *4547:RESET_B 0
7 *4158:A2 *4788:A 0
8 *4158:A2 *381:24 0.000239807
9 *4158:A2 *687:10 0.000178634
10 *4158:A2 *969:21 0.000109306
11 *4158:A2 *1049:27 0
12 *289:18 *4158:A2 0.000461935
*RES
1 *4153:X *4158:A2 20.46 
*END

*D_NET *301 0.000385348
*CONN
*I *4157:B1 I *D sky130_fd_sc_hd__a2111o_2
*I *4154:X O *D sky130_fd_sc_hd__and4bb_2
*CAP
1 *4157:B1 0.000145284
2 *4154:X 0.000145284
3 *4157:B1 *4154:A_N 3.45679e-05
4 *4157:B1 *1029:113 6.02123e-05
5 *4026:S *4157:B1 0
*RES
1 *4154:X *4157:B1 9.375 
*END

*D_NET *302 0.00236664
*CONN
*I *4157:C1 I *D sky130_fd_sc_hd__a2111o_2
*I *4155:X O *D sky130_fd_sc_hd__o211a_2
*CAP
1 *4157:C1 0.000934919
2 *4155:X 0.000934919
3 *4157:C1 *4157:A1 3.23663e-05
4 *4157:C1 *625:20 0.000264544
5 *4157:C1 *625:24 1.83756e-05
6 *4157:C1 *982:77 8.84186e-05
7 *267:24 *4157:C1 9.31022e-05
8 *267:30 *4157:C1 0
*RES
1 *4155:X *4157:C1 20.415 
*END

*D_NET *303 0.000588472
*CONN
*I *4157:D1 I *D sky130_fd_sc_hd__a2111o_2
*I *4156:X O *D sky130_fd_sc_hd__and4bb_2
*CAP
1 *4157:D1 0.00016368
2 *4156:X 0.00016368
3 *4157:D1 *4158:A3 6.55406e-05
4 *4157:D1 *1013:101 3.23663e-05
5 *4157:D1 *1029:105 0.000163204
6 *4157:D1 *1029:113 0
*RES
1 *4156:X *4157:D1 10.755 
*END

*D_NET *304 0.00227369
*CONN
*I *4158:A3 I *D sky130_fd_sc_hd__o32ai_4
*I *4157:X O *D sky130_fd_sc_hd__a2111o_2
*CAP
1 *4158:A3 0.000492189
2 *4157:X 0.000492189
3 *4158:A3 *3992:A0 6.01103e-05
4 *4158:A3 *947:26 0.000155352
5 *4158:A3 *982:77 1.56428e-05
6 *4158:A3 *1029:113 0
7 *4026:S *4158:A3 0.000860908
8 *4157:D1 *4158:A3 6.55406e-05
9 *4158:A2 *4158:A3 0.000118306
10 *289:18 *4158:A3 1.34503e-05
*RES
1 *4157:X *4158:A3 19.65 
*END

*D_NET *305 0.0109108
*CONN
*I *5093:A I *D sky130_fd_sc_hd__buf_2
*I *4317:A I *D sky130_fd_sc_hd__nor2_2
*I *4158:Y O *D sky130_fd_sc_hd__o32ai_4
*CAP
1 *5093:A 0.000110518
2 *4317:A 5.65017e-05
3 *4158:Y 0.00237749
4 *305:16 0.00254451
5 *4317:A *4181:D 0.000207838
6 *4317:A *988:10 0.000116841
7 *5093:A *4384:A 2.68464e-05
8 *305:16 *4181:D 0.0012331
9 *305:16 *4327:A2_N 0.000158297
10 *305:16 *4371:S 0.000137578
11 *305:16 *360:16 8.1154e-05
12 *305:16 *947:26 1.00941e-05
13 *305:16 *958:29 0.000355931
14 *305:16 *969:70 0
15 *305:16 *988:10 0.000343695
16 *305:16 *1026:69 0.000217723
17 *305:16 *1128:53 0.000218261
18 *4243:B1 *305:16 0.00129434
19 *4491:D *305:16 9.26907e-06
20 *255:18 *305:16 0
21 *285:38 *305:16 0.0014108
*RES
1 *4158:Y *305:16 24.8601 
2 *305:16 *4317:A 6 
3 *305:16 *5093:A 5.085 
*END

*D_NET *306 0.00242345
*CONN
*I *4170:A I *D sky130_fd_sc_hd__xnor2_2
*I *4192:B I *D sky130_fd_sc_hd__and4b_2
*I *4159:Y O *D sky130_fd_sc_hd__nor2_2
*CAP
1 *4170:A 0.000467945
2 *4192:B 0.000148949
3 *4159:Y 0.000101136
4 *306:12 0.000718031
5 *4170:A *4170:B 0.00018305
6 *4170:A *4190:A 2.67275e-05
7 *4170:A *4190:B 1.91597e-05
8 *4170:A *4219:A 5.30673e-05
9 *4170:A *4219:B 3.59311e-05
10 *4170:A *336:22 6.30882e-05
11 *4192:B *4190:A 8.34281e-06
12 *4192:B *4190:B 4.80285e-05
13 *4192:B *4192:C 3.00381e-05
14 *4192:B *4192:D 2.49909e-05
15 *306:12 *4150:B 1.73877e-05
16 *306:12 *4169:B 0.000220452
17 *306:12 *4189:B 2.0514e-05
18 *306:12 *4228:A1 0.000141365
19 *306:12 *613:93 5.05521e-05
20 *306:12 *869:45 4.46892e-05
21 *4151:A0 *4170:A 0
22 *4189:A *4170:A 0
*RES
1 *4159:Y *306:12 9.05 
2 *306:12 *4192:B 3.43 
3 *306:12 *4170:A 12.83 
*END

*D_NET *307 0.00268269
*CONN
*I *4167:A1 I *D sky130_fd_sc_hd__o32a_2
*I *4168:A1 I *D sky130_fd_sc_hd__o32ai_2
*I *4160:X O *D sky130_fd_sc_hd__and2_2
*CAP
1 *4167:A1 0.000175416
2 *4168:A1 9.44559e-05
3 *4160:X 0.00046712
4 *307:10 0.000736992
5 *4167:A1 *4167:A3 1.47347e-05
6 *4167:A1 *308:18 0.000158835
7 *4168:A1 *4168:A2 0
8 *4168:A1 *4168:B1 0.000168475
9 *4168:A1 *1026:36 8.8266e-05
10 *307:10 *4161:B2 0.000257293
11 *307:10 *4168:B1 7.30547e-05
12 *307:10 *4595:D 0.000116151
13 *307:10 *313:10 0
14 *307:10 *613:22 2.78074e-05
15 *307:10 *969:99 3.7027e-05
16 *307:10 *1019:52 7.23602e-05
17 *4161:A2 *4168:A1 0
18 *4161:A2 *307:10 0
19 *4921:A *307:10 0.0001947
*RES
1 *4160:X *307:10 11.685 
2 *307:10 *4168:A1 6.03 
3 *307:10 *4167:A1 6.045 
*END

*D_NET *308 0.00134691
*CONN
*I *4167:A2 I *D sky130_fd_sc_hd__o32a_2
*I *4168:A2 I *D sky130_fd_sc_hd__o32ai_2
*I *4161:X O *D sky130_fd_sc_hd__a22o_2
*CAP
1 *4167:A2 0
2 *4168:A2 0.000112568
3 *4161:X 0.000210821
4 *308:18 0.000323389
5 *4168:A2 *4167:B2 7.3664e-05
6 *4168:A2 *4168:A3 1.73877e-05
7 *4168:A2 *4168:B1 5.63821e-05
8 *4168:A2 *4339:A1_N 7.17811e-05
9 *4168:A2 *1026:36 4.99619e-05
10 *308:18 *4161:B2 0
11 *308:18 *4167:A3 4.82863e-05
12 *308:18 *4167:B1 2.49909e-05
13 *308:18 *4603:CLK 3.65279e-05
14 *308:18 *982:34 0.000162311
15 *4167:A1 *308:18 0.000158835
16 *4168:A1 *4168:A2 0
*RES
1 *4161:X *308:18 10.175 
2 *308:18 *4168:A2 8.195 
3 *308:18 *4167:A2 1.6 
*END

*D_NET *309 0.00061437
*CONN
*I *4166:A I *D sky130_fd_sc_hd__or4_2
*I *4162:X O *D sky130_fd_sc_hd__and4bb_2
*CAP
1 *4166:A 0.00010517
2 *4162:X 0.00010517
3 *4166:A *4073:A0 0.000210328
4 *4166:A *4162:C 4.66108e-05
5 *4166:A *4166:C 0.000147091
*RES
1 *4162:X *4166:A 6.185 
*END

*D_NET *310 0.000357678
*CONN
*I *4166:B I *D sky130_fd_sc_hd__or4_2
*I *4163:X O *D sky130_fd_sc_hd__o211a_2
*CAP
1 *4166:B 0.000146072
2 *4163:X 0.000146072
3 *4166:B *4105:S 0
4 *4166:B *4164:D 0
5 *4166:B *4166:D 6.55328e-05
6 *4166:B *1003:18 0
*RES
1 *4163:X *4166:B 9.6 
*END

*D_NET *311 0.00106679
*CONN
*I *4166:C I *D sky130_fd_sc_hd__or4_2
*I *4164:X O *D sky130_fd_sc_hd__and4bb_2
*CAP
1 *4166:C 0.00029159
2 *4164:X 0.00029159
3 *4166:C *4162:C 2.67275e-05
4 *4166:C *4164:B_N 0
5 *4166:C *4571:RESET_B 9.47454e-05
6 *4166:C *706:73 0.00020554
7 *4166:C *1005:36 9.50342e-06
8 *4166:A *4166:C 0.000147091
*RES
1 *4164:X *4166:C 13.14 
*END

*D_NET *312 0.00116207
*CONN
*I *4166:D I *D sky130_fd_sc_hd__or4_2
*I *4165:X O *D sky130_fd_sc_hd__and4b_2
*CAP
1 *4166:D 0.00032362
2 *4165:X 0.00032362
3 *4166:D *4105:S 0
4 *4166:D *4165:D 2.24992e-05
5 *4166:D *1020:26 7.63204e-05
6 *4166:D *1021:30 7.23602e-05
7 *4166:D *1029:45 0.000278117
8 *4166:B *4166:D 6.55328e-05
*RES
1 *4165:X *4166:D 12.885 
*END

*D_NET *313 0.00307352
*CONN
*I *4167:A3 I *D sky130_fd_sc_hd__o32a_2
*I *4168:A3 I *D sky130_fd_sc_hd__o32ai_2
*I *4166:X O *D sky130_fd_sc_hd__or4_2
*CAP
1 *4167:A3 4.48219e-05
2 *4168:A3 0.000124838
3 *4166:X 0.000637948
4 *313:10 0.000807608
5 *4167:A3 *4339:A1_N 1.56428e-05
6 *4167:A3 *4603:CLK 0.000163199
7 *4167:A3 *314:25 3.64998e-06
8 *4168:A3 *4168:B1 4.66108e-05
9 *4168:A3 *4339:A1_N 0.000136877
10 *4168:A3 *1012:38 0
11 *4168:A3 *1026:36 4.82863e-05
12 *4168:A3 *1113:10 4.9968e-05
13 *313:10 *4073:A0 6.68963e-05
14 *313:10 *4073:S 4.66108e-05
15 *313:10 *4097:A0 0.000149873
16 *313:10 *4105:A1 0.0003766
17 *313:10 *4161:B2 0
18 *313:10 *4727:A 0
19 *313:10 *5039:A 0.000133749
20 *313:10 *969:99 0
21 *313:10 *1089:8 0
22 *313:10 *1097:12 0.000139933
23 *4167:A1 *4167:A3 1.47347e-05
24 *4168:A2 *4168:A3 1.73877e-05
25 *4603:D *313:10 0
26 *307:10 *313:10 0
27 *308:18 *4167:A3 4.82863e-05
*RES
1 *4166:X *313:10 16.335 
2 *313:10 *4168:A3 6.45 
3 *313:10 *4167:A3 5.085 
*END

*D_NET *314 0.00869096
*CONN
*I *4192:C I *D sky130_fd_sc_hd__and4b_2
*I *4238:A I *D sky130_fd_sc_hd__and2_2
*I *4290:B2 I *D sky130_fd_sc_hd__a2bb2o_2
*I *4339:A1_N I *D sky130_fd_sc_hd__o2bb2a_2
*I *4167:X O *D sky130_fd_sc_hd__o32a_2
*CAP
1 *4192:C 0.000442463
2 *4238:A 0
3 *4290:B2 0.000326599
4 *4339:A1_N 0.000552441
5 *4167:X 0
6 *314:27 0.000594927
7 *314:25 0.00177444
8 *314:4 0.00161609
9 *4192:C *4190:A 4.82863e-05
10 *4192:C *4192:A_N 4.82863e-05
11 *4192:C *4217:A 0.000360116
12 *4192:C *4219:B 0.000220614
13 *4192:C *4611:CLK 0.000313857
14 *4192:C *362:10 8.23457e-05
15 *4290:B2 *4238:B 0
16 *4290:B2 *4266:A1 0
17 *4290:B2 *4290:B1 4.99619e-05
18 *4290:B2 *350:8 0
19 *4290:B2 *869:22 7.06e-05
20 *4290:B2 *880:25 6.47326e-05
21 *4290:B2 *903:10 0
22 *4339:A1_N *4326:D_N 0
23 *4339:A1_N *4728:A 0.000578154
24 *4339:A1_N *333:25 0.000427094
25 *4339:A1_N *1012:38 0
26 *4339:A1_N *1113:10 5.92269e-05
27 *314:25 *4121:A1 0
28 *314:25 *4603:CLK 2.50702e-05
29 *314:25 *4603:RESET_B 3.79595e-05
30 *314:25 *4611:D 0
31 *314:25 *4802:A 0.000138799
32 *314:25 *1026:36 0
33 *314:27 *4238:B 0
34 *4167:A3 *4339:A1_N 1.56428e-05
35 *4167:A3 *314:25 3.64998e-06
36 *4168:A2 *4339:A1_N 7.17811e-05
37 *4168:A3 *4339:A1_N 0.000136877
38 *4192:B *4192:C 3.00381e-05
39 *4205:A *4290:B2 0
40 *4205:A *314:27 0
41 *4239:B2 *4339:A1_N 0.000552715
42 *255:18 *314:25 0
43 *255:18 *314:27 0
44 *297:19 *4339:A1_N 4.81878e-05
*RES
1 *4167:X *314:4 1.6 
2 *314:4 *4339:A1_N 20.8925 
3 *314:4 *314:25 15.095 
4 *314:25 *314:27 4.185 
5 *314:27 *4290:B2 9.36 
6 *314:27 *4238:A 3.6 
7 *314:25 *4192:C 14.175 
*END

*D_NET *315 0.00464765
*CONN
*I *5057:A I *D sky130_fd_sc_hd__buf_1
*I *4289:A I *D sky130_fd_sc_hd__or4b_2
*I *4337:A I *D sky130_fd_sc_hd__nor2_2
*I *4168:Y O *D sky130_fd_sc_hd__o32ai_2
*CAP
1 *5057:A 9.05218e-05
2 *4289:A 2.06805e-05
3 *4337:A 0.000733469
4 *4168:Y 0.00056853
5 *315:31 0.000164114
6 *315:10 0.00135491
7 *4289:A *381:64 0
8 *4337:A *4326:A 4.82919e-05
9 *4337:A *5091:A 0.000631452
10 *4337:A *432:10 0.000140999
11 *4337:A *466:12 0.000127929
12 *4337:A *468:12 4.66108e-05
13 *4337:A *858:27 2.86976e-05
14 *4337:A *880:6 6.54766e-05
15 *4337:A *880:25 4.9253e-06
16 *4337:A *1012:38 0
17 *5057:A *858:55 4.66108e-05
18 *315:10 *4121:A0 0.000161829
19 *315:10 *4121:S 1.70935e-05
20 *315:10 *4289:C 0
21 *315:10 *4611:RESET_B 5.72916e-05
22 *315:10 *432:10 1.71013e-05
23 *315:10 *1012:38 0
24 *315:10 *1113:29 7.00889e-06
25 *315:31 *4289:D_N 5.83121e-06
26 *315:31 *381:64 0.000120655
27 *315:31 *432:10 2.09749e-05
28 *256:18 *4289:A 4.99619e-05
29 *256:18 *5057:A 8.57237e-05
30 *256:18 *315:31 3.09552e-05
*RES
1 *4168:Y *315:10 13.11 
2 *315:10 *4337:A 17.94 
3 *315:10 *315:31 3.5 
4 *315:31 *4289:A 2.41 
5 *315:31 *5057:A 3.79 
*END

*D_NET *316 0.0015246
*CONN
*I *4170:B I *D sky130_fd_sc_hd__xnor2_2
*I *4191:A I *D sky130_fd_sc_hd__nor2_2
*I *4258:A1 I *D sky130_fd_sc_hd__o31ai_2
*I *4169:X O *D sky130_fd_sc_hd__or2_2
*CAP
1 *4170:B 8.87445e-05
2 *4191:A 0.000157777
3 *4258:A1 0
4 *4169:X 0.000107455
5 *316:6 0.000353976
6 *4170:B *4191:B 2.34423e-05
7 *4170:B *336:22 4.43871e-06
8 *4170:B *402:12 0
9 *4191:A *4220:A 4.21973e-05
10 *4191:A *4258:B1 4.82919e-05
11 *4191:A *615:134 0.000239688
12 *316:6 *615:134 0.000275542
13 *4170:A *4170:B 0.00018305
*RES
1 *4169:X *316:6 4.12 
2 *316:6 *4258:A1 1.6 
3 *316:6 *4191:A 5.29 
4 *316:6 *4170:B 7.745 
*END

*D_NET *317 0.00148521
*CONN
*I *4171:A0 I *D sky130_fd_sc_hd__mux2_1
*I *4170:Y O *D sky130_fd_sc_hd__xnor2_2
*CAP
1 *4171:A0 0.000444114
2 *4170:Y 0.000444114
3 *4171:A0 *4171:A1 0.000116165
4 *4151:A0 *4171:A0 0.000480814
*RES
1 *4170:Y *4171:A0 15.12 
*END

*D_NET *318 0.000153397
*CONN
*I *4178:A1 I *D sky130_fd_sc_hd__o32ai_2
*I *4172:X O *D sky130_fd_sc_hd__and2_2
*CAP
1 *4178:A1 1.39199e-05
2 *4172:X 1.39199e-05
3 *4178:A1 *4178:B1 8.8266e-05
4 *272:149 *4178:A1 3.72916e-05
*RES
1 *4172:X *4178:A1 3.995 
*END

*D_NET *319 0.00152273
*CONN
*I *4178:A2 I *D sky130_fd_sc_hd__o32ai_2
*I *4173:X O *D sky130_fd_sc_hd__a22o_2
*CAP
1 *4178:A2 0.000348428
2 *4173:X 0.000348428
3 *4178:A2 *5092:A 5.10462e-05
4 *4178:A2 *612:12 0.000372741
5 *4002:S *4178:A2 0.00040209
*RES
1 *4173:X *4178:A2 16.77 
*END

*D_NET *320 0.00171482
*CONN
*I *4177:B1 I *D sky130_fd_sc_hd__a2111o_2
*I *4174:X O *D sky130_fd_sc_hd__o211a_2
*CAP
1 *4177:B1 0.000518663
2 *4174:X 0.000518663
3 *4177:B1 *4174:A1 0
4 *4177:B1 *4177:C1 2.69217e-05
5 *4177:B1 *4508:RESET_B 0
6 *4177:B1 *4718:A 0.000163019
7 *4177:B1 *612:12 0.000305339
8 *4177:B1 *612:20 1.92979e-05
9 *4177:B1 *619:82 0
10 *4177:B1 *995:37 9.91257e-05
11 *4177:B1 *1009:58 0
12 *4177:B1 *1009:60 0
13 *4508:D *4177:B1 3.68682e-05
14 *273:94 *4177:B1 2.69217e-05
*RES
1 *4174:X *4177:B1 16.89 
*END

*D_NET *321 0.00136231
*CONN
*I *4177:C1 I *D sky130_fd_sc_hd__a2111o_2
*I *4175:X O *D sky130_fd_sc_hd__and4bb_2
*CAP
1 *4177:C1 0.000489153
2 *4175:X 0.000489153
3 *4177:C1 *4175:B_N 4.82919e-05
4 *4177:C1 *4177:A1 0.000141642
5 *4177:C1 *4508:RESET_B 5.85071e-05
6 *4177:C1 *619:10 3.00381e-05
7 *4177:C1 *640:10 7.03219e-05
8 *4177:B1 *4177:C1 2.69217e-05
9 *273:94 *4177:C1 8.28018e-06
*RES
1 *4175:X *4177:C1 14.97 
*END

*D_NET *322 0.000303585
*CONN
*I *4177:D1 I *D sky130_fd_sc_hd__a2111o_2
*I *4176:X O *D sky130_fd_sc_hd__and4b_2
*CAP
1 *4177:D1 9.65455e-05
2 *4176:X 9.65455e-05
3 *273:94 *4177:D1 0.000110494
*RES
1 *4176:X *4177:D1 5.03 
*END

*D_NET *323 0.00255298
*CONN
*I *4178:A3 I *D sky130_fd_sc_hd__o32ai_2
*I *4177:X O *D sky130_fd_sc_hd__a2111o_2
*CAP
1 *4178:A3 0.000483294
2 *4177:X 0.000483294
3 *4178:A3 *4178:B1 4.66108e-05
4 *4178:A3 *612:12 0.000987991
5 *4178:A3 *1045:53 0
6 *4173:A2 *4178:A3 0.000322295
7 *4492:D *4178:A3 9.30787e-05
8 *4500:D *4178:A3 3.54721e-05
9 *272:149 *4178:A3 1.56428e-05
10 *273:94 *4178:A3 8.53011e-05
*RES
1 *4177:X *4178:A3 20.28 
*END

*D_NET *324 0.00419819
*CONN
*I *5092:A I *D sky130_fd_sc_hd__clkbuf_2
*I *4178:Y O *D sky130_fd_sc_hd__o32ai_2
*CAP
1 *5092:A 0.000638727
2 *4178:Y 0.000638727
3 *5092:A *4007:A0 0.000495107
4 *5092:A *381:22 0.000508947
5 *5092:A *612:10 8.53113e-06
6 *5092:A *612:12 0.000195316
7 *5092:A *696:82 3.96737e-05
8 *5092:A *696:101 0.000113809
9 *4002:S *5092:A 4.40933e-05
10 *4007:S *5092:A 0.000196381
11 *4178:A2 *5092:A 5.10462e-05
12 *267:36 *5092:A 0.00114461
13 *267:46 *5092:A 0.000123225
*RES
1 *4178:Y *5092:A 28.335 
*END

*D_NET *325 0.00248404
*CONN
*I *4206:B I *D sky130_fd_sc_hd__nor3_2
*I *4195:A I *D sky130_fd_sc_hd__nor2_2
*I *4194:A I *D sky130_fd_sc_hd__and2_2
*I *4179:X O *D sky130_fd_sc_hd__or2_2
*CAP
1 *4206:B 0
2 *4195:A 0
3 *4194:A 5.66461e-05
4 *4179:X 6.70733e-05
5 *325:18 0.000683642
6 *325:6 0.000694069
7 *4194:A *4195:B 9.50267e-05
8 *4194:A *339:10 9.91257e-05
9 *325:6 *4206:C 0.000122331
10 *325:6 *925:27 0.000122331
11 *325:18 *4193:B 8.07672e-05
12 *325:18 *4206:A 4.82863e-05
13 *325:18 *4208:A 5.9533e-05
14 *325:18 *339:10 0.000113282
15 *325:18 *351:10 6.86777e-05
16 *325:18 *353:18 0.000173251
*RES
1 *4179:X *325:6 3.43 
2 *325:6 *325:18 11.655 
3 *325:18 *4194:A 3.445 
4 *325:18 *4195:A 1.6 
5 *325:6 *4206:B 1.6 
*END

*D_NET *326 0.000520613
*CONN
*I *4185:B1 I *D sky130_fd_sc_hd__a2111o_2
*I *4180:X O *D sky130_fd_sc_hd__and4b_2
*CAP
1 *4185:B1 0.000136928
2 *4180:X 0.000136928
3 *4185:B1 *4181:D 0
4 *4185:B1 *4185:C1 0.000246757
*RES
1 *4180:X *4185:B1 9.72 
*END

*D_NET *327 0.000752371
*CONN
*I *4185:C1 I *D sky130_fd_sc_hd__a2111o_2
*I *4181:X O *D sky130_fd_sc_hd__and4b_2
*CAP
1 *4185:C1 0.000144553
2 *4181:X 0.000144553
3 *4185:C1 *4180:B 1.33293e-05
4 *4185:C1 *4180:C 0.000203178
5 *4185:C1 *4181:D 0
6 *4185:B1 *4185:C1 0.000246757
*RES
1 *4181:X *4185:C1 11.01 
*END

*D_NET *328 0.00147719
*CONN
*I *4186:A1 I *D sky130_fd_sc_hd__o32a_2
*I *4187:A1 I *D sky130_fd_sc_hd__o32ai_2
*I *4182:X O *D sky130_fd_sc_hd__and2_2
*CAP
1 *4186:A1 0
2 *4187:A1 0.000122798
3 *4182:X 0.000278539
4 *328:10 0.000401337
5 *4187:A1 *4187:A2 0.000178564
6 *328:10 *4187:A2 9.12494e-06
7 *328:10 *330:10 0.000449626
8 *328:10 *332:8 3.72007e-05
*RES
1 *4182:X *328:10 8.19 
2 *328:10 *4187:A1 6.195 
3 *328:10 *4186:A1 3.6 
*END

*D_NET *329 0.000685947
*CONN
*I *4185:D1 I *D sky130_fd_sc_hd__a2111o_2
*I *4183:X O *D sky130_fd_sc_hd__o211a_2
*CAP
1 *4185:D1 0.000145624
2 *4183:X 0.000145624
3 *4185:D1 *4185:A1 0.000394699
*RES
1 *4183:X *4185:D1 6.755 
*END

*D_NET *330 0.00239335
*CONN
*I *4186:A2 I *D sky130_fd_sc_hd__o32a_2
*I *4187:A2 I *D sky130_fd_sc_hd__o32ai_2
*I *4184:X O *D sky130_fd_sc_hd__a22o_2
*CAP
1 *4186:A2 0
2 *4187:A2 5.57945e-05
3 *4184:X 0.000648812
4 *330:10 0.000704606
5 *4187:A2 *4186:A3 0.000156691
6 *4187:A2 *969:46 0
7 *330:10 *4182:A 8.23457e-05
8 *330:10 *4184:A1 1.86304e-05
9 *330:10 *4184:A2 3.35859e-05
10 *330:10 *4184:B2 4.90227e-05
11 *330:10 *332:8 6.54361e-06
12 *4187:A1 *4187:A2 0.000178564
13 *328:10 *4187:A2 9.12494e-06
14 *328:10 *330:10 0.000449626
*RES
1 *4184:X *330:10 14.655 
2 *330:10 *4187:A2 5.745 
3 *330:10 *4186:A2 3.6 
*END

*D_NET *331 0.000856939
*CONN
*I *4187:A3 I *D sky130_fd_sc_hd__o32ai_2
*I *4186:A3 I *D sky130_fd_sc_hd__o32a_2
*I *4185:X O *D sky130_fd_sc_hd__a2111o_2
*CAP
1 *4187:A3 0
2 *4186:A3 8.29026e-05
3 *4185:X 0.000174632
4 *331:10 0.000257534
5 *4186:A3 *4187:B1 5.32983e-05
6 *331:10 *4187:B1 5.31158e-06
7 *331:10 *722:52 0.00012657
8 *4187:A2 *4186:A3 0.000156691
*RES
1 *4185:X *331:10 6.375 
2 *331:10 *4186:A3 5.94 
3 *331:10 *4187:A3 3.6 
*END

*D_NET *332 0.00187846
*CONN
*I *4327:B2 I *D sky130_fd_sc_hd__a2bb2o_2
*I *4370:A I *D sky130_fd_sc_hd__nand2_2
*I *4371:A0 I *D sky130_fd_sc_hd__mux2_1
*I *4186:X O *D sky130_fd_sc_hd__o32a_2
*CAP
1 *4327:B2 6.58202e-05
2 *4370:A 0
3 *4371:A0 0
4 *4186:X 0.000624075
5 *332:19 0.000133919
6 *332:8 0.000692174
7 *4327:B2 *4371:A1 4.82919e-05
8 *4327:B2 *611:49 5.83121e-06
9 *332:8 *4373:B 0
10 *332:8 *4374:B 0
11 *332:8 *4964:A 0
12 *332:8 *429:40 1.56615e-05
13 *332:8 *969:46 0
14 *332:8 *983:20 0
15 *332:19 *4371:A1 9.47454e-05
16 *332:19 *429:22 5.53249e-06
17 *332:19 *429:40 8.34426e-05
18 *332:19 *969:46 0
19 *296:39 *4327:B2 6.52181e-05
20 *328:10 *332:8 3.72007e-05
21 *330:10 *332:8 6.54361e-06
*RES
1 *4186:X *332:8 13.395 
2 *332:8 *4371:A0 3.6 
3 *332:8 *332:19 3.89 
4 *332:19 *4370:A 1.6 
5 *332:19 *4327:B2 3.085 
*END

*D_NET *333 0.00764509
*CONN
*I *4289:B I *D sky130_fd_sc_hd__or4b_2
*I *4290:A1_N I *D sky130_fd_sc_hd__a2bb2o_2
*I *5090:A I *D sky130_fd_sc_hd__buf_1
*I *4326:A I *D sky130_fd_sc_hd__or4b_2
*I *4187:Y O *D sky130_fd_sc_hd__o32ai_2
*CAP
1 *4289:B 4.70172e-05
2 *4290:A1_N 9.32873e-05
3 *5090:A 2.78365e-05
4 *4326:A 9.71884e-06
5 *4187:Y 0.00129349
6 *333:40 0.000201748
7 *333:25 0.000378739
8 *333:10 0.00159267
9 *4289:B *381:64 5.65627e-05
10 *4289:B *858:47 6.28843e-05
11 *4290:A1_N *381:64 2.59981e-05
12 *4290:A1_N *432:10 4.63436e-05
13 *4290:A1_N *858:27 1.99848e-05
14 *4290:A1_N *858:38 8.32626e-05
15 *4290:A1_N *858:47 1.1561e-05
16 *4326:A *466:12 4.82919e-05
17 *333:10 *4328:B 5.16418e-05
18 *333:10 *4340:B1 5.22283e-05
19 *333:10 *4381:A 0.000189746
20 *333:10 *4382:A 7.33968e-05
21 *333:10 *4383:A 0.000309354
22 *333:10 *4384:A 0.00014804
23 *333:10 *5091:A 5.70461e-06
24 *333:10 *360:44 4.55864e-06
25 *333:10 *466:12 9.52078e-05
26 *333:10 *468:12 0
27 *333:10 *470:12 0
28 *333:10 *483:8 0
29 *333:10 *1012:48 0.000868464
30 *333:10 *1114:23 0.000112196
31 *333:25 *4326:D_N 0
32 *333:25 *5091:A 2.06841e-05
33 *333:25 *360:44 8.61393e-05
34 *333:40 *381:73 2.05056e-05
35 *4239:B2 *5090:A 5.45793e-05
36 *4239:B2 *333:25 0.000284649
37 *4239:B2 *333:40 0.000120393
38 *4337:A *4326:A 4.82919e-05
39 *4339:A1_N *333:25 0.000427094
40 *297:19 *333:25 0.000541742
41 *297:19 *333:40 0.000131069
*RES
1 *4187:Y *333:10 28.98 
2 *333:10 *4326:A 4.05 
3 *333:10 *333:25 12.53 
4 *333:25 *5090:A 2.5225 
5 *333:25 *333:40 4.175 
6 *333:40 *4290:A1_N 5.925 
7 *333:40 *4289:B 4.98 
*END

*D_NET *334 0.0017576
*CONN
*I *4193:A I *D sky130_fd_sc_hd__xor2_2
*I *4218:A I *D sky130_fd_sc_hd__nand2_2
*I *4254:A I *D sky130_fd_sc_hd__and3_2
*I *4188:Y O *D sky130_fd_sc_hd__nor2_2
*CAP
1 *4193:A 0.000237344
2 *4218:A 0.000151287
3 *4254:A 0
4 *4188:Y 0.000127513
5 *334:17 0.000593742
6 *334:6 0.000332625
7 *4193:A *351:25 0
8 *4193:A *353:18 0
9 *4193:A *402:12 0
10 *334:6 *4254:B 3.24055e-05
11 *334:6 *4254:C 8.65961e-05
12 *334:6 *4265:B1 4.66108e-05
13 *334:6 *361:6 3.64998e-06
14 *334:6 *361:23 3.09179e-05
15 *334:17 *4254:C 0.000114912
16 *334:17 *4255:A 0
17 *334:17 *351:25 0
18 *334:17 *402:12 0
*RES
1 *4188:Y *334:6 4.12 
2 *334:6 *4254:A 1.6 
3 *334:6 *334:17 5.795 
4 *334:17 *4218:A 5.775 
5 *334:17 *4193:A 7.53 
*END

*D_NET *335 0.000557505
*CONN
*I *4193:B I *D sky130_fd_sc_hd__xor2_2
*I *4189:X O *D sky130_fd_sc_hd__or3_2
*CAP
1 *4193:B 0.000170292
2 *4189:X 0.000170292
3 *4193:B *353:18 4.95629e-05
4 *4193:B *613:93 8.65905e-05
5 *4193:B *903:59 0
6 *325:18 *4193:B 8.07672e-05
*RES
1 *4189:X *4193:B 8.5175 
*END

*D_NET *336 0.00150894
*CONN
*I *4191:B I *D sky130_fd_sc_hd__nor2_2
*I *4258:A2 I *D sky130_fd_sc_hd__o31ai_2
*I *4219:A I *D sky130_fd_sc_hd__xor2_2
*I *4190:X O *D sky130_fd_sc_hd__or2_2
*CAP
1 *4191:B 0.000250328
2 *4258:A2 0
3 *4219:A 0.000178642
4 *4190:X 1.44798e-05
5 *336:22 0.00041449
6 *4191:B *4258:A3 9.50342e-06
7 *4191:B *402:12 3.50599e-05
8 *4191:B *615:134 0.000237249
9 *4219:A *4219:B 5.30673e-05
10 *336:22 *4220:A 8.09021e-06
11 *336:22 *4258:A3 0.000163992
12 *4170:A *4219:A 5.30673e-05
13 *4170:A *336:22 6.30882e-05
14 *4170:B *4191:B 2.34423e-05
15 *4170:B *336:22 4.43871e-06
*RES
1 *4190:X *4219:A 3.995 
2 *4219:A *336:22 7.23 
3 *336:22 *4258:A2 3.6 
4 *336:22 *4191:B 12.01 
*END

*D_NET *337 0.000939976
*CONN
*I *4220:A I *D sky130_fd_sc_hd__xnor2_2
*I *4191:Y O *D sky130_fd_sc_hd__nor2_2
*CAP
1 *4220:A 0.000242414
2 *4191:Y 0.000242414
3 *4220:A *4220:B 0.000163992
4 *4220:A *4258:A3 6.74079e-05
5 *4220:A *4258:B1 8.65961e-05
6 *4220:A *402:12 8.68646e-05
7 *4191:A *4220:A 4.21973e-05
8 *336:22 *4220:A 8.09021e-06
*RES
1 *4191:Y *4220:A 12.36 
*END

*D_NET *338 0.00344743
*CONN
*I *4226:A1 I *D sky130_fd_sc_hd__a21oi_2
*I *4225:B1 I *D sky130_fd_sc_hd__a21oi_2
*I *4228:A1 I *D sky130_fd_sc_hd__o21ai_2
*I *4192:X O *D sky130_fd_sc_hd__and4b_2
*CAP
1 *4226:A1 8.32309e-05
2 *4225:B1 0
3 *4228:A1 0.000862185
4 *4192:X 0.000711801
5 *338:32 0.000233615
6 *4226:A1 *4226:A2 8.82557e-05
7 *4226:A1 *4226:B1 4.82919e-05
8 *4226:A1 *4227:A0 7.00889e-06
9 *4228:A1 *4189:B 8.23457e-05
10 *4228:A1 *4221:B 0.000237249
11 *4228:A1 *4228:A2 2.75229e-05
12 *4228:A1 *353:18 9.01848e-05
13 *4228:A1 *613:93 0.000310085
14 *4228:A1 *869:45 9.47454e-05
15 *338:32 *4225:A1 8.23457e-05
16 *338:32 *4225:A2 6.46363e-05
17 *338:32 *4226:A2 3.03235e-05
18 *338:32 *4226:B1 2.16833e-05
19 *338:32 *372:12 0.000224723
20 *338:32 *613:93 5.83121e-06
21 *306:12 *4228:A1 0.000141365
*RES
1 *4192:X *4228:A1 20.865 
2 *4228:A1 *338:32 5.635 
3 *338:32 *4225:B1 1.6 
4 *338:32 *4226:A1 3.43 
*END

*D_NET *339 0.00128027
*CONN
*I *4194:B I *D sky130_fd_sc_hd__and2_2
*I *4195:B I *D sky130_fd_sc_hd__nor2_2
*I *4193:X O *D sky130_fd_sc_hd__xor2_2
*CAP
1 *4194:B 0
2 *4195:B 2.20725e-05
3 *4193:X 0.000414873
4 *339:10 0.000436945
5 *4195:B *341:8 9.8948e-05
6 *4194:A *4195:B 9.50267e-05
7 *4194:A *339:10 9.91257e-05
8 *325:18 *339:10 0.000113282
*RES
1 *4193:X *339:10 7.675 
2 *339:10 *4195:B 3.415 
3 *339:10 *4194:B 1.6 
*END

*D_NET *340 0.00142156
*CONN
*I *4197:A2 I *D sky130_fd_sc_hd__o31ai_2
*I *4194:X O *D sky130_fd_sc_hd__and2_2
*CAP
1 *4197:A2 0.000458258
2 *4194:X 0.000458258
3 *4197:A2 *4197:A3 0
4 *4197:A2 *4225:A2 0.000132842
5 *4197:A2 *341:14 6.47326e-05
6 *4197:A2 *367:12 4.49585e-05
7 *4197:A2 *367:14 2.96553e-05
8 *4197:A2 *367:16 3.39151e-05
9 *4197:A2 *613:93 0.000198945
*RES
1 *4194:X *4197:A2 14.085 
*END

*D_NET *341 0.00262542
*CONN
*I *4228:A2 I *D sky130_fd_sc_hd__o21ai_2
*I *4197:A3 I *D sky130_fd_sc_hd__o31ai_2
*I *4223:A I *D sky130_fd_sc_hd__nand2_2
*I *4224:A I *D sky130_fd_sc_hd__or2_2
*I *4195:Y O *D sky130_fd_sc_hd__nor2_2
*CAP
1 *4228:A2 0.000137237
2 *4197:A3 0.000221795
3 *4223:A 0
4 *4224:A 2.08101e-05
5 *4195:Y 0.000136342
6 *341:25 0.000255482
7 *341:14 0.000251645
8 *341:8 0.000470727
9 *4197:A3 *4197:B1 0.000148129
10 *4197:A3 *4223:B 2.14672e-05
11 *4197:A3 *4225:A1 2.15594e-05
12 *4197:A3 *4225:A2 7.21296e-06
13 *4197:A3 *372:12 0.000114492
14 *4197:A3 *613:93 4.66108e-05
15 *4228:A2 *4222:A 0
16 *4228:A2 *367:14 0
17 *4228:A2 *367:16 0
18 *4228:A2 *613:93 7.35813e-05
19 *341:14 *4223:B 5.05521e-05
20 *341:14 *367:16 0
21 *341:14 *613:93 9.52646e-05
22 *341:25 *4223:B 0.000112279
23 *341:25 *613:93 9.07709e-05
24 *4195:B *341:8 9.8948e-05
25 *4197:A1 *4197:A3 3.45588e-05
26 *4197:A2 *4197:A3 0
27 *4197:A2 *341:14 6.47326e-05
28 *4228:A1 *4228:A2 2.75229e-05
29 *4620:D *4197:A3 4.82863e-05
30 *261:18 *4197:A3 7.5416e-05
*RES
1 *4195:Y *341:8 5.43 
2 *341:8 *341:14 6.08 
3 *341:14 *4224:A 1.96 
4 *341:14 *341:25 1.845 
5 *341:25 *4223:A 1.6 
6 *341:25 *4197:A3 11.03 
7 *341:8 *4228:A2 6.12 
*END

*D_NET *342 0.0011245
*CONN
*I *4197:B1 I *D sky130_fd_sc_hd__o31ai_2
*I *4196:Y O *D sky130_fd_sc_hd__nand2_2
*CAP
1 *4197:B1 0.000312708
2 *4196:Y 0.000312708
3 *4197:B1 *613:93 0.000273872
4 *4197:B1 *629:70 0
5 *4197:A3 *4197:B1 0.000148129
6 *4474:S *4197:B1 0
7 *261:18 *4197:B1 7.70828e-05
*RES
1 *4196:Y *4197:B1 13.905 
*END

*D_NET *343 0.000492295
*CONN
*I *4204:A1 I *D sky130_fd_sc_hd__o32ai_4
*I *4198:X O *D sky130_fd_sc_hd__and2_2
*CAP
1 *4204:A1 0.000197846
2 *4198:X 0.000197846
3 *4204:A1 *4204:A2 0
4 *4204:A1 *958:109 0
5 *4204:A1 *987:90 9.66021e-05
*RES
1 *4198:X *4204:A1 10.065 
*END

*D_NET *344 0.00029656
*CONN
*I *4203:B1 I *D sky130_fd_sc_hd__a2111o_2
*I *4199:X O *D sky130_fd_sc_hd__o211a_2
*CAP
1 *4203:B1 5.61566e-05
2 *4199:X 5.61566e-05
3 *4203:B1 *4128:C 4.82863e-05
4 *4203:B1 *4203:A1 4.99619e-05
5 *4203:A2 *4203:B1 4.82863e-05
6 *276:23 *4203:B1 3.7712e-05
*RES
1 *4199:X *4203:B1 4.685 
*END

*D_NET *345 0.000745746
*CONN
*I *4203:C1 I *D sky130_fd_sc_hd__a2111o_2
*I *4200:X O *D sky130_fd_sc_hd__and4b_2
*CAP
1 *4203:C1 0.000225053
2 *4200:X 0.000225053
3 *4203:C1 *1006:48 4.18603e-06
4 *4203:C1 *1006:59 4.5005e-05
5 *4203:C1 *1007:123 8.49205e-05
6 *4203:A2 *4203:C1 0
7 *5063:A *4203:C1 0.000161529
8 *282:66 *4203:C1 0
*RES
1 *4200:X *4203:C1 11.355 
*END

*D_NET *346 0.000511863
*CONN
*I *4203:D1 I *D sky130_fd_sc_hd__a2111o_2
*I *4201:X O *D sky130_fd_sc_hd__and4b_2
*CAP
1 *4203:D1 0.000152953
2 *4201:X 0.000152953
3 *4203:D1 *987:118 0.000163204
4 *4203:D1 *1006:48 4.27531e-05
*RES
1 *4201:X *4203:D1 9.555 
*END

*D_NET *347 0.00239083
*CONN
*I *4204:A2 I *D sky130_fd_sc_hd__o32ai_4
*I *4202:X O *D sky130_fd_sc_hd__a22o_2
*CAP
1 *4204:A2 0.00102794
2 *4202:X 0.00102794
3 *4204:A2 *4025:A0 4.77807e-05
4 *4204:A2 *4198:A 0
5 *4204:A2 *4268:B1 0.000157937
6 *4204:A2 *4496:CLK 0
7 *4204:A2 *4814:A 0
8 *4204:A2 *621:37 0
9 *4204:A2 *958:109 2.66999e-05
10 *4204:A2 *1037:22 0
11 *4044:S *4204:A2 0.000102539
12 *4204:A1 *4204:A2 0
*RES
1 *4202:X *4204:A2 23.955 
*END

*D_NET *348 0.00255076
*CONN
*I *4204:A3 I *D sky130_fd_sc_hd__o32ai_4
*I *4203:X O *D sky130_fd_sc_hd__a2111o_2
*CAP
1 *4204:A3 0.000494242
2 *4203:X 0.000494242
3 *4204:A3 *3994:A0 0.000201503
4 *4204:A3 *3994:A1 0.000423637
5 *4204:A3 *4204:B1 9.53428e-06
6 *4204:A3 *4549:CLK 0
7 *4204:A3 *4764:A 5.33874e-05
8 *4204:A3 *958:58 2.75229e-05
9 *4204:A3 *958:74 0.000594801
10 *4204:A3 *1006:48 9.19368e-05
11 *4204:A3 *1015:32 0.000159957
*RES
1 *4203:X *4204:A3 19.455 
*END

*D_NET *349 0.0185568
*CONN
*I *4378:A I *D sky130_fd_sc_hd__nor2_2
*I *5056:A I *D sky130_fd_sc_hd__clkbuf_2
*I *4327:A1_N I *D sky130_fd_sc_hd__a2bb2o_2
*I *4204:Y O *D sky130_fd_sc_hd__o32ai_4
*CAP
1 *4378:A 0.000159556
2 *5056:A 0.000234013
3 *4327:A1_N 0
4 *4204:Y 0.00663291
5 *349:20 0.000240614
6 *349:16 0.00679907
7 *4378:A *360:33 8.23457e-05
8 *4378:A *360:44 0.000272851
9 *4378:A *381:32 6.1357e-05
10 *4378:A *969:46 0.000195925
11 *4378:A *988:10 0.000112105
12 *5056:A *4181:D 0
13 *5056:A *4327:A2_N 0.000114568
14 *5056:A *4377:A 4.99524e-05
15 *5056:A *4379:A 8.30853e-06
16 *5056:A *469:12 0.000212846
17 *349:16 *4198:A 1.88904e-05
18 *349:16 *360:16 0
19 *349:16 *611:23 0.000163262
20 *349:16 *958:52 0.000135187
21 *349:16 *958:109 1.88656e-05
22 *349:16 *969:46 0.000191153
23 *349:16 *986:31 0
24 *349:16 *986:59 3.98779e-05
25 *349:16 *988:10 0.000101245
26 *349:20 *4327:A2_N 1.86443e-05
27 *256:18 *4378:A 0.000454101
28 *276:42 *349:16 0.00195655
29 *280:87 *349:16 0
30 *296:39 *5056:A 0.000272569
31 *296:39 *349:20 9.99636e-06
*RES
1 *4204:Y *349:16 20.1365 
2 *349:16 *349:20 2.18 
3 *349:20 *4327:A1_N 1.6 
4 *349:20 *5056:A 12.005 
5 *349:16 *4378:A 10.245 
*END

*D_NET *350 0.000719709
*CONN
*I *4240:A1 I *D sky130_fd_sc_hd__a21boi_2
*I *4266:A1 I *D sky130_fd_sc_hd__a22oi_2
*I *4205:Y O *D sky130_fd_sc_hd__nor2_2
*CAP
1 *4240:A1 0
2 *4266:A1 0.000150135
3 *4205:Y 7.19202e-05
4 *350:8 0.000222055
5 *4266:A1 *4241:B 7.23533e-05
6 *4266:A1 *4266:A2 2.34423e-05
7 *4266:A1 *4266:B1 0
8 *4266:A1 *880:25 2.65814e-06
9 *350:8 *4266:A2 1.34361e-05
10 *350:8 *362:10 0
11 *350:8 *382:10 0.000116151
12 *4205:A *350:8 4.75576e-05
13 *4290:B2 *4266:A1 0
14 *4290:B2 *350:8 0
*RES
1 *4205:Y *350:8 5.49 
2 *350:8 *4266:A1 6.15 
3 *350:8 *4240:A1 3.6 
*END

*D_NET *351 0.00267337
*CONN
*I *4253:A I *D sky130_fd_sc_hd__xor2_2
*I *4265:A1 I *D sky130_fd_sc_hd__a21o_2
*I *4208:A I *D sky130_fd_sc_hd__or2_2
*I *4206:Y O *D sky130_fd_sc_hd__nor3_2
*CAP
1 *4253:A 0.000107353
2 *4265:A1 6.53855e-05
3 *4208:A 1.93111e-05
4 *4206:Y 0.000118741
5 *351:25 0.000556895
6 *351:10 0.000522208
7 *4253:A *4253:B 0.000103057
8 *4253:A *4265:A2 1.08758e-05
9 *4265:A1 *4256:B 4.89395e-05
10 *4265:A1 *4265:A2 9.39029e-05
11 *4265:A1 *4265:B1 0.000164344
12 *351:10 *4206:A 4.82863e-05
13 *351:25 *4208:B 0.000139245
14 *351:25 *4218:B 0.000141599
15 *351:25 *4252:A 7.97083e-05
16 *351:25 *4255:A 0.00012297
17 *351:25 *4265:A2 2.4997e-05
18 *351:25 *4265:B1 0.000159957
19 *351:25 *869:45 0
20 *351:25 *903:44 1.73877e-05
21 *4193:A *351:25 0
22 *325:18 *4208:A 5.9533e-05
23 *325:18 *351:10 6.86777e-05
24 *334:17 *351:25 0
*RES
1 *4206:Y *351:10 3.8125 
2 *351:10 *4208:A 2.1625 
3 *351:10 *351:25 10.775 
4 *351:25 *4265:A1 5.94 
5 *351:25 *4253:A 5.445 
*END

*D_NET *352 0.000990578
*CONN
*I *4208:B I *D sky130_fd_sc_hd__or2_2
*I *4207:X O *D sky130_fd_sc_hd__o22a_2
*CAP
1 *4208:B 0.000306571
2 *4207:X 0.000306571
3 *4208:B *903:44 0.000233751
4 *4208:B *903:59 4.43871e-06
5 *351:25 *4208:B 0.000139245
*RES
1 *4207:X *4208:B 12.045 
*END

*D_NET *353 0.00225189
*CONN
*I *4221:A_N I *D sky130_fd_sc_hd__nand2b_2
*I *4222:A I *D sky130_fd_sc_hd__xnor2_2
*I *4208:X O *D sky130_fd_sc_hd__or2_2
*CAP
1 *4221:A_N 0
2 *4222:A 9.20826e-05
3 *4208:X 0.000468704
4 *353:18 0.000560787
5 *4222:A *4222:B 6.4422e-05
6 *4222:A *4258:B1 0.000143266
7 *4222:A *402:12 0
8 *353:18 *4221:B 7.60965e-05
9 *353:18 *402:12 0.000181376
10 *353:18 *613:93 0.000352156
11 *4193:A *353:18 0
12 *4193:B *353:18 4.95629e-05
13 *4228:A1 *353:18 9.01848e-05
14 *4228:A2 *4222:A 0
15 *325:18 *353:18 0.000173251
*RES
1 *4208:X *353:18 15.92 
2 *353:18 *4222:A 8 
3 *353:18 *4221:A_N 1.6 
*END

*D_NET *354 0.000324034
*CONN
*I *4210:C1 I *D sky130_fd_sc_hd__a221oi_2
*I *4209:X O *D sky130_fd_sc_hd__and4bb_2
*CAP
1 *4210:C1 8.00212e-05
2 *4209:X 8.00212e-05
3 *4210:C1 *1067:16 0.000163992
*RES
1 *4209:X *4210:C1 9.09 
*END

*D_NET *355 0.00147715
*CONN
*I *4215:B1 I *D sky130_fd_sc_hd__a2bb2o_2
*I *4210:Y O *D sky130_fd_sc_hd__a221oi_2
*CAP
1 *4215:B1 0.00047012
2 *4210:Y 0.00047012
3 *4215:B1 *4210:A1 8.35106e-05
4 *4215:B1 *4210:A2 7.94805e-05
5 *4215:B1 *4210:B2 8.64421e-05
6 *4215:B1 *4798:A 8.65905e-05
7 *4215:B1 *1034:14 0.000200887
*RES
1 *4210:Y *4215:B1 11.93 
*END

*D_NET *356 0.00117657
*CONN
*I *4214:B1 I *D sky130_fd_sc_hd__a2111oi_2
*I *4211:X O *D sky130_fd_sc_hd__and4b_2
*CAP
1 *4214:B1 0.00036334
2 *4211:X 0.00036334
3 *4214:B1 *4123:A1 0
4 *4214:B1 *4211:B 0
5 *4214:B1 *4214:D1 5.12855e-05
6 *4214:B1 *4597:RESET_B 0
7 *4214:B1 *4747:A 0
8 *4214:B1 *4958:A 0
9 *4214:B1 *992:12 0.000361735
10 *4214:B1 *1099:10 3.68682e-05
11 *4214:B1 *1107:10 0
*RES
1 *4211:X *4214:B1 15.21 
*END

*D_NET *357 0.000662853
*CONN
*I *4214:C1 I *D sky130_fd_sc_hd__a2111oi_2
*I *4212:X O *D sky130_fd_sc_hd__o211a_2
*CAP
1 *4214:C1 0.000165537
2 *4212:X 0.000165537
3 *4214:C1 *4214:A1 0.000197264
4 *4214:C1 *1022:55 4.9968e-05
5 *4214:C1 *1022:83 8.45475e-05
*RES
1 *4212:X *4214:C1 10.665 
*END

*D_NET *358 0.000376353
*CONN
*I *4214:D1 I *D sky130_fd_sc_hd__a2111oi_2
*I *4213:X O *D sky130_fd_sc_hd__and4b_2
*CAP
1 *4214:D1 0.000102892
2 *4213:X 0.000102892
3 *4214:D1 *4123:A1 7.09921e-05
4 *4214:D1 *1014:14 4.82919e-05
5 *4214:B1 *4214:D1 5.12855e-05
*RES
1 *4213:X *4214:D1 9.285 
*END

*D_NET *359 0.00159781
*CONN
*I *4215:B2 I *D sky130_fd_sc_hd__a2bb2o_2
*I *4214:Y O *D sky130_fd_sc_hd__a2111oi_2
*CAP
1 *4215:B2 0.000271143
2 *4214:Y 0.000271143
3 *4215:B2 *4123:A0 0.000252282
4 *4215:B2 *4214:A2 8.65961e-05
5 *4215:B2 *4613:RESET_B 0.000337538
6 *4215:B2 *992:12 0.000220629
7 *4215:B2 *994:29 0.000128437
8 *4215:B2 *1034:14 3.00381e-05
*RES
1 *4214:Y *4215:B2 15.945 
*END

*D_NET *360 0.0323931
*CONN
*I *4216:B I *D sky130_fd_sc_hd__nor2_2
*I *4217:B I *D sky130_fd_sc_hd__nor2_2
*I *4288:B I *D sky130_fd_sc_hd__nor2_2
*I *4326:C I *D sky130_fd_sc_hd__or4b_2
*I *4325:A_N I *D sky130_fd_sc_hd__and2b_2
*I *4327:A2_N I *D sky130_fd_sc_hd__a2bb2o_2
*I *4215:X O *D sky130_fd_sc_hd__a2bb2o_2
*CAP
1 *4216:B 0.000287262
2 *4217:B 0.000225871
3 *4288:B 1.65976e-05
4 *4326:C 0
5 *4325:A_N 0
6 *4327:A2_N 0.000139448
7 *4215:X 0.00826248
8 *360:70 0.00164817
9 *360:57 0.00203813
10 *360:44 0.00127805
11 *360:33 0.000415679
12 *360:16 0.00842605
13 *4216:B *4696:A 0.000219383
14 *4216:B *914:40 5.53249e-06
15 *4216:B *914:57 0.00012237
16 *4217:B *4729:A 0.000229221
17 *4217:B *362:10 0.000660454
18 *4217:B *613:14 0.000138551
19 *4327:A2_N *469:12 4.66108e-05
20 *4327:A2_N *988:10 0.00015997
21 *360:16 *4487:A1 0
22 *360:16 *4517:CLK 0
23 *360:16 *4613:RESET_B 0
24 *360:16 *611:23 0.000190602
25 *360:16 *623:109 0
26 *360:16 *958:29 0
27 *360:16 *958:33 0
28 *360:16 *969:33 0
29 *360:16 *986:31 0.0023555
30 *360:16 *988:10 7.33173e-05
31 *360:33 *381:32 8.23457e-05
32 *360:44 *4326:D_N 0
33 *360:44 *4340:B1 0.00011379
34 *360:44 *4378:B 0.000273369
35 *360:44 *381:32 0.000111925
36 *360:44 *381:39 0.00106302
37 *360:44 *392:31 0.000148972
38 *360:44 *469:12 3.47668e-05
39 *4378:A *360:33 8.23457e-05
40 *4378:A *360:44 0.000272851
41 *4689:D *360:16 0
42 *4799:A *360:16 0.000298435
43 *5056:A *4327:A2_N 0.000114568
44 *255:18 *360:16 0.00117776
45 *256:12 *4217:B 0
46 *256:18 *360:44 0.00028192
47 *280:81 *360:16 0.000682408
48 *280:87 *360:16 0.000246204
49 *282:49 *360:16 0.000108366
50 *296:39 *4327:A2_N 1.19928e-05
51 *297:12 *360:44 0
52 *305:16 *4327:A2_N 0.000158297
53 *305:16 *360:16 8.1154e-05
54 *333:10 *360:44 4.55864e-06
55 *333:25 *360:44 8.61393e-05
56 *349:16 *360:16 0
57 *349:20 *4327:A2_N 1.86443e-05
*RES
1 *4215:X *360:16 31.7849 
2 *360:16 *4327:A2_N 7.335 
3 *360:16 *360:33 2.795 
4 *360:33 *4325:A_N 1.6 
5 *360:33 *360:44 16.73 
6 *360:44 *4326:C 3.6 
7 *360:44 *360:57 1.99467 
8 *360:57 *4288:B 4.3325 
9 *360:57 *360:70 1.90253 
10 *360:70 *4217:B 12.2375 
11 *360:70 *4216:B 7.13163 
*END

*D_NET *361 0.0017633
*CONN
*I *4254:B I *D sky130_fd_sc_hd__and3_2
*I *4218:B I *D sky130_fd_sc_hd__nand2_2
*I *4252:A I *D sky130_fd_sc_hd__xnor2_2
*I *4216:Y O *D sky130_fd_sc_hd__nor2_2
*CAP
1 *4254:B 9.6466e-05
2 *4218:B 7.08771e-05
3 *4252:A 0.00021265
4 *4216:Y 0.000174376
5 *361:23 0.000229016
6 *361:6 0.000448699
7 *4218:B *869:45 0
8 *4252:A *4265:A2 8.53113e-06
9 *4252:A *4696:A 0
10 *4252:A *385:12 0
11 *4252:A *869:45 3.05295e-05
12 *361:6 *4188:A 0.0001249
13 *361:6 *869:39 3.23663e-05
14 *361:6 *936:33 4.66108e-05
15 *334:6 *4254:B 3.24055e-05
16 *334:6 *361:6 3.64998e-06
17 *334:6 *361:23 3.09179e-05
18 *351:25 *4218:B 0.000141599
19 *351:25 *4252:A 7.97083e-05
*RES
1 *4216:Y *361:6 4.465 
2 *361:6 *4252:A 9.485 
3 *361:6 *361:23 1.155 
4 *361:23 *4218:B 7.235 
5 *361:23 *4254:B 2.74 
*END

*D_NET *362 0.0052137
*CONN
*I *4258:A3 I *D sky130_fd_sc_hd__o31ai_2
*I *4219:B I *D sky130_fd_sc_hd__xor2_2
*I *4251:A I *D sky130_fd_sc_hd__nand2_2
*I *4308:A1 I *D sky130_fd_sc_hd__a31o_2
*I *4217:Y O *D sky130_fd_sc_hd__nor2_2
*CAP
1 *4258:A3 6.09756e-05
2 *4219:B 0.00056571
3 *4251:A 0
4 *4308:A1 0.000127171
5 *4217:Y 0
6 *362:10 0.00106484
7 *362:4 0.0014424
8 *4219:B *4190:A 0.000302687
9 *4219:B *4192:A_N 4.82863e-05
10 *4258:A3 *402:12 0
11 *4308:A1 *4308:A2 4.89395e-05
12 *362:10 *4241:B 0
13 *362:10 *4266:A2 0
14 *362:10 *4729:A 0
15 *362:10 *382:10 0
16 *362:10 *409:8 0
17 *362:10 *936:16 6.73751e-05
18 *362:10 *936:33 6.95335e-05
19 *4170:A *4219:B 3.59311e-05
20 *4191:B *4258:A3 9.50342e-06
21 *4192:C *4219:B 0.000220614
22 *4192:C *362:10 8.23457e-05
23 *4205:A *362:10 0
24 *4217:B *362:10 0.000660454
25 *4219:A *4219:B 5.30673e-05
26 *4220:A *4258:A3 6.74079e-05
27 *256:12 *362:10 0.000122474
28 *336:22 *4258:A3 0.000163992
29 *350:8 *362:10 0
*RES
1 *4217:Y *362:4 1.6 
2 *362:4 *362:10 21.005 
3 *362:10 *4308:A1 5.43 
4 *362:10 *4251:A 3.6 
5 *362:4 *4219:B 8.9475 
6 *4219:B *4258:A3 7.49 
*END

*D_NET *363 0.00135122
*CONN
*I *4255:A I *D sky130_fd_sc_hd__xnor2_2
*I *4218:Y O *D sky130_fd_sc_hd__nand2_2
*CAP
1 *4255:A 0.000456051
2 *4218:Y 0.000456051
3 *4255:A *4254:C 0
4 *4255:A *4255:B 0
5 *4255:A *4265:B1 0.000316153
6 *334:17 *4255:A 0
7 *351:25 *4255:A 0.00012297
*RES
1 *4218:Y *4255:A 15.66 
*END

*D_NET *364 0.000404893
*CONN
*I *4220:B I *D sky130_fd_sc_hd__xnor2_2
*I *4219:X O *D sky130_fd_sc_hd__xor2_2
*CAP
1 *4220:B 3.8455e-05
2 *4219:X 3.8455e-05
3 *4220:B *402:12 0.000163992
4 *4220:A *4220:B 0.000163992
*RES
1 *4219:X *4220:B 9.09 
*END

*D_NET *365 0.000691132
*CONN
*I *4221:B I *D sky130_fd_sc_hd__nand2b_2
*I *4222:B I *D sky130_fd_sc_hd__xnor2_2
*I *4220:Y O *D sky130_fd_sc_hd__xnor2_2
*CAP
1 *4221:B 4.08178e-05
2 *4222:B 9.15898e-05
3 *4220:Y 0
4 *365:4 0.000132408
5 *4221:B *613:93 4.85494e-05
6 *4222:B *402:12 0
7 *4222:A *4222:B 6.4422e-05
8 *4228:A1 *4221:B 0.000237249
9 *353:18 *4221:B 7.60965e-05
*RES
1 *4220:Y *365:4 1.6 
2 *365:4 *4222:B 7.49 
3 *365:4 *4221:B 3.775 
*END

*D_NET *366 0.00103367
*CONN
*I *4258:B1 I *D sky130_fd_sc_hd__o31ai_2
*I *4221:Y O *D sky130_fd_sc_hd__nand2b_2
*CAP
1 *4258:B1 0.000314526
2 *4221:Y 0.000314526
3 *4258:B1 *402:12 0
4 *4258:B1 *615:134 0.000126463
5 *4191:A *4258:B1 4.82919e-05
6 *4220:A *4258:B1 8.65961e-05
7 *4222:A *4258:B1 0.000143266
*RES
1 *4221:Y *4258:B1 13.575 
*END

*D_NET *367 0.00281422
*CONN
*I *4226:A2 I *D sky130_fd_sc_hd__a21oi_2
*I *4228:B1 I *D sky130_fd_sc_hd__o21ai_2
*I *4224:B I *D sky130_fd_sc_hd__or2_2
*I *4223:B I *D sky130_fd_sc_hd__nand2_2
*I *4222:Y O *D sky130_fd_sc_hd__xnor2_2
*CAP
1 *4226:A2 0.000310744
2 *4228:B1 0
3 *4224:B 0
4 *4223:B 0.000310894
5 *4222:Y 0.000278198
6 *367:16 0.000400409
7 *367:14 0.000129525
8 *367:12 0.000628952
9 *4223:B *4225:A2 0
10 *4223:B *372:12 0
11 *4223:B *613:93 2.30292e-05
12 *4226:A2 *4225:A1 1.91597e-05
13 *4226:A2 *4225:A2 0.000122325
14 *4226:A2 *4226:B1 8.57024e-05
15 *4226:A2 *4227:A0 3.93106e-05
16 *4226:A2 *629:70 7.00889e-06
17 *367:16 *4225:A2 0
18 *367:16 *613:93 4.75576e-05
19 *4197:A2 *367:12 4.49585e-05
20 *4197:A2 *367:14 2.96553e-05
21 *4197:A2 *367:16 3.39151e-05
22 *4197:A3 *4223:B 2.14672e-05
23 *4226:A1 *4226:A2 8.82557e-05
24 *4228:A2 *367:14 0
25 *4228:A2 *367:16 0
26 *338:32 *4226:A2 3.03235e-05
27 *341:14 *4223:B 5.05521e-05
28 *341:14 *367:16 0
29 *341:25 *4223:B 0.000112279
*RES
1 *4222:Y *367:12 7.86 
2 *367:12 *367:14 0.87 
3 *367:14 *367:16 1.635 
4 *367:16 *4223:B 8.415 
5 *367:16 *4224:B 3.6 
6 *367:14 *4228:B1 3.6 
7 *367:12 *4226:A2 9.255 
*END

*D_NET *368 0.000602606
*CONN
*I *4225:A1 I *D sky130_fd_sc_hd__a21oi_2
*I *4223:Y O *D sky130_fd_sc_hd__nand2_2
*CAP
1 *4225:A1 7.95882e-05
2 *4223:Y 7.95882e-05
3 *4225:A1 *4225:A2 0.000204206
4 *4225:A1 *372:12 0.000116158
5 *4197:A3 *4225:A1 2.15594e-05
6 *4226:A2 *4225:A1 1.91597e-05
7 *338:32 *4225:A1 8.23457e-05
*RES
1 *4223:Y *4225:A1 9.885 
*END

*D_NET *369 0.000741095
*CONN
*I *4225:A2 I *D sky130_fd_sc_hd__a21oi_2
*I *4224:X O *D sky130_fd_sc_hd__or2_2
*CAP
1 *4225:A2 0.000104936
2 *4224:X 0.000104936
3 *4197:A2 *4225:A2 0.000132842
4 *4197:A3 *4225:A2 7.21296e-06
5 *4223:B *4225:A2 0
6 *4225:A1 *4225:A2 0.000204206
7 *4226:A2 *4225:A2 0.000122325
8 *338:32 *4225:A2 6.46363e-05
9 *367:16 *4225:A2 0
*RES
1 *4224:X *4225:A2 10.485 
*END

*D_NET *370 0.00019092
*CONN
*I *4226:B1 I *D sky130_fd_sc_hd__a21oi_2
*I *4225:Y O *D sky130_fd_sc_hd__a21oi_2
*CAP
1 *4226:B1 1.76214e-05
2 *4225:Y 1.76214e-05
3 *4226:A1 *4226:B1 4.82919e-05
4 *4226:A2 *4226:B1 8.57024e-05
5 *338:32 *4226:B1 2.16833e-05
*RES
1 *4225:Y *4226:B1 3.995 
*END

*D_NET *371 0.000511908
*CONN
*I *4227:A0 I *D sky130_fd_sc_hd__mux2_1
*I *4226:Y O *D sky130_fd_sc_hd__a21oi_2
*CAP
1 *4227:A0 0.000203973
2 *4226:Y 0.000203973
3 *4227:A0 *629:70 5.18105e-05
4 *4226:A1 *4227:A0 7.00889e-06
5 *4226:A2 *4227:A0 3.93106e-05
6 *4227:S *4227:A0 5.83121e-06
*RES
1 *4226:Y *4227:A0 5.72 
*END

*D_NET *372 0.0019107
*CONN
*I *4262:A_N I *D sky130_fd_sc_hd__nand2b_2
*I *4263:A I *D sky130_fd_sc_hd__xnor2_2
*I *4228:Y O *D sky130_fd_sc_hd__o21ai_2
*CAP
1 *4262:A_N 0
2 *4263:A 0.000138933
3 *4228:Y 0.000537442
4 *372:12 0.000676375
5 *4263:A *4262:B 1.01661e-05
6 *4263:A *406:10 9.24127e-05
7 *4197:A3 *372:12 0.000114492
8 *4223:B *372:12 0
9 *4225:A1 *372:12 0.000116158
10 *4474:S *4263:A 0
11 *4474:S *372:12 0
12 *338:32 *372:12 0.000224723
*RES
1 *4228:Y *372:12 11.94 
2 *372:12 *4263:A 6.45 
3 *372:12 *4262:A_N 3.6 
*END

*D_NET *373 0.00111552
*CONN
*I *4241:A I *D sky130_fd_sc_hd__xnor2_2
*I *4266:B2 I *D sky130_fd_sc_hd__a22oi_2
*I *4229:Y O *D sky130_fd_sc_hd__nor2_2
*CAP
1 *4241:A 0.000174373
2 *4266:B2 0.000133777
3 *4229:Y 0.00030815
4 *4241:A *869:22 2.75145e-05
5 *4241:A *869:39 3.67955e-05
6 *4241:A *880:37 0.000107932
7 *4266:B2 *4241:B 0
8 *4266:B2 *4266:B1 8.7152e-06
9 *4266:B2 *392:41 4.03082e-05
10 *4266:B2 *409:8 6.86906e-05
11 *4266:B2 *869:22 0.000209265
*RES
1 *4229:Y *4266:B2 10.305 
2 *4229:Y *4241:A 6.44 
*END

*D_NET *374 0.0020225
*CONN
*I *4237:A1 I *D sky130_fd_sc_hd__o32a_2
*I *4230:X O *D sky130_fd_sc_hd__and2_2
*CAP
1 *4237:A1 0.000707487
2 *4230:X 0.000707487
3 *4237:A1 *4237:A2 3.26889e-05
4 *4237:A1 *612:68 0
5 *4237:A1 *622:10 7.36076e-05
6 *4237:A1 *622:14 0.000117395
7 *4237:A1 *622:16 0.000110563
8 *4237:A1 *986:42 8.65961e-05
9 *4237:A1 *1009:34 0.000170494
10 *4237:A1 *1024:24 0
11 *275:36 *4237:A1 0
12 *276:23 *4237:A1 1.61831e-05
*RES
1 *4230:X *4237:A1 19.305 
*END

*D_NET *375 0.00178151
*CONN
*I *4237:A2 I *D sky130_fd_sc_hd__o32a_2
*I *4231:X O *D sky130_fd_sc_hd__a22o_2
*CAP
1 *4237:A2 0.000434416
2 *4231:X 0.000434416
3 *4237:A2 *4004:A0 3.29689e-05
4 *4237:A2 *4231:A1 0.000183334
5 *4237:A2 *4237:B2 4.82919e-05
6 *4237:A2 *4502:RESET_B 0.00019194
7 *4237:A2 *4534:RESET_B 4.82919e-05
8 *4237:A2 *622:16 0.000118212
9 *4237:A2 *1042:61 4.64604e-05
10 *4004:S *4237:A2 0.000112728
11 *4237:A1 *4237:A2 3.26889e-05
12 *272:57 *4237:A2 2.77471e-05
13 *275:61 *4237:A2 7.00115e-05
*RES
1 *4231:X *4237:A2 17.67 
*END

*D_NET *376 0.000757031
*CONN
*I *4236:D_N I *D sky130_fd_sc_hd__or4b_2
*I *4232:X O *D sky130_fd_sc_hd__or4b_2
*CAP
1 *4236:D_N 0.00020655
2 *4232:X 0.00020655
3 *4236:D_N *4023:A1 4.82863e-05
4 *4236:D_N *4236:A 0
5 *4236:D_N *4542:CLK 3.25831e-05
6 *4236:D_N *982:111 3.09164e-05
7 *4236:D_N *1017:22 4.75076e-05
8 *4014:S *4236:D_N 0.000145029
9 *268:51 *4236:D_N 3.96088e-05
*RES
1 *4232:X *4236:D_N 11.325 
*END

*D_NET *377 0.00117805
*CONN
*I *4236:A I *D sky130_fd_sc_hd__or4b_2
*I *4233:X O *D sky130_fd_sc_hd__o211a_2
*CAP
1 *4236:A 0.000345198
2 *4233:X 0.000345198
3 *4236:A *4023:A0 0
4 *4236:A *4848:A 0.00015045
5 *4236:A *634:16 0
6 *4236:A *658:8 3.45588e-05
7 *4236:A *982:111 1.22676e-05
8 *4236:A *1010:58 0
9 *4236:A *1018:101 0.000198769
10 *4014:S *4236:A 8.65905e-05
11 *4023:S *4236:A 5.02126e-06
12 *4236:D_N *4236:A 0
*RES
1 *4233:X *4236:A 13.965 
*END

*D_NET *378 0.00119332
*CONN
*I *4236:B I *D sky130_fd_sc_hd__or4b_2
*I *4234:X O *D sky130_fd_sc_hd__and4bb_2
*CAP
1 *4236:B 0.000376496
2 *4234:X 0.000376496
3 *4236:B *4013:A0 4.66108e-05
4 *4236:B *4235:A_N 5.83121e-06
5 *4236:B *4236:C 1.9415e-05
6 *4236:B *4506:CLK 2.75229e-05
7 *4236:B *624:125 0.000111061
8 *4236:B *624:127 8.247e-05
9 *4236:B *982:111 7.10578e-05
10 *4236:B *1018:49 0
11 *4236:B *1025:42 5.13684e-05
12 *4236:B *1025:46 2.49909e-05
*RES
1 *4234:X *4236:B 12.585 
*END

*D_NET *379 0.00185999
*CONN
*I *4236:C I *D sky130_fd_sc_hd__or4b_2
*I *4235:X O *D sky130_fd_sc_hd__and4b_2
*CAP
1 *4236:C 0.000637863
2 *4235:X 0.000637863
3 *4236:C *4506:CLK 0.000142652
4 *4236:C *4510:RESET_B 9.0444e-05
5 *4236:C *4688:RESET_B 9.0444e-05
6 *4236:C *624:127 7.50685e-05
7 *4236:C *682:6 4.66108e-05
8 *4236:C *982:111 0.000119631
9 *4236:B *4236:C 1.9415e-05
*RES
1 *4235:X *4236:C 16.95 
*END

*D_NET *380 0.00319072
*CONN
*I *4237:A3 I *D sky130_fd_sc_hd__o32a_2
*I *4236:X O *D sky130_fd_sc_hd__or4b_2
*CAP
1 *4237:A3 0.0008003
2 *4236:X 0.0008003
3 *4237:A3 *4237:B2 4.43871e-06
4 *4237:A3 *4510:RESET_B 0.000515355
5 *4237:A3 *4542:RESET_B 0
6 *4237:A3 *4936:A 0.000170551
7 *4237:A3 *982:85 0.000432647
8 *4237:A3 *982:111 0.000238324
9 *4237:A3 *1017:22 0
10 *4237:A3 *1038:10 0.000114492
11 *4237:A3 *1042:61 0
12 *4542:D *4237:A3 2.10433e-05
13 *272:57 *4237:A3 9.32656e-05
*RES
1 *4236:X *4237:A3 21.1685 
*END

*D_NET *381 0.0231156
*CONN
*I *4327:B1 I *D sky130_fd_sc_hd__a2bb2o_2
*I *4289:D_N I *D sky130_fd_sc_hd__or4b_2
*I *4238:B I *D sky130_fd_sc_hd__and2_2
*I *4290:B1 I *D sky130_fd_sc_hd__a2bb2o_2
*I *4239:B1 I *D sky130_fd_sc_hd__a2bb2o_2
*I *4326:D_N I *D sky130_fd_sc_hd__or4b_2
*I *4325:B I *D sky130_fd_sc_hd__and2b_2
*I *4237:X O *D sky130_fd_sc_hd__o32a_2
*CAP
1 *4327:B1 0.000102569
2 *4289:D_N 8.65399e-06
3 *4238:B 0.000184417
4 *4290:B1 0.000131782
5 *4239:B1 0
6 *4326:D_N 0.000245055
7 *4325:B 0
8 *4237:X 0.00228414
9 *381:73 0.000370506
10 *381:64 0.000282591
11 *381:54 0.000541297
12 *381:39 0.0011431
13 *381:32 0.000933509
14 *381:24 0.00227635
15 *381:22 0.0041181
16 *4238:B *4289:C 5.16418e-05
17 *4238:B *858:38 2.23922e-05
18 *4238:B *858:47 0.000162318
19 *4238:B *858:55 0.000164352
20 *4238:B *903:10 6.47516e-05
21 *4290:B1 *432:10 0
22 *4290:B1 *858:38 0.000134627
23 *4290:B1 *869:22 0
24 *4290:B1 *880:25 5.30673e-05
25 *4326:D_N *4728:A 0
26 *4326:D_N *468:12 4.88555e-05
27 *4327:B1 *429:22 0
28 *4327:B1 *611:49 4.49585e-05
29 *4327:B1 *969:46 0
30 *381:22 *4704:A 0.000163204
31 *381:22 *4811:A 3.90336e-05
32 *381:22 *4916:A 1.46744e-05
33 *381:22 *612:57 7.25532e-05
34 *381:22 *612:68 0.000259132
35 *381:22 *612:83 8.16669e-05
36 *381:22 *642:10 2.11162e-05
37 *381:24 *4026:A0 0.00015896
38 *381:24 *4373:A 0.000308713
39 *381:24 *4916:A 1.08758e-05
40 *381:39 *4379:A 0.000159464
41 *381:64 *432:10 0.000155928
42 *381:73 *869:22 0.00019637
43 *4007:S *381:22 0.000111918
44 *4158:A2 *381:24 0.000239807
45 *4239:B2 *381:73 4.82919e-05
46 *4289:A *381:64 0
47 *4289:B *381:64 5.65627e-05
48 *4290:A1_N *381:64 2.59981e-05
49 *4290:B2 *4238:B 0
50 *4290:B2 *4290:B1 4.99619e-05
51 *4339:A1_N *4326:D_N 0
52 *4362:A2 *381:24 0.000712389
53 *4365:C1 *381:24 0.00167318
54 *4378:A *381:32 6.1357e-05
55 *5092:A *381:22 0.000508947
56 *256:18 *4238:B 0.000277223
57 *256:18 *4289:D_N 4.82863e-05
58 *256:18 *381:24 0.000417327
59 *256:18 *381:32 5.80664e-05
60 *256:18 *381:39 0.000105451
61 *256:18 *381:54 0.00073174
62 *267:46 *381:22 0.00099144
63 *268:87 *381:22 6.95753e-05
64 *272:57 *381:22 0.000465614
65 *276:61 *381:24 1.66606e-05
66 *297:19 *381:73 3.0807e-05
67 *314:27 *4238:B 0
68 *315:31 *4289:D_N 5.83121e-06
69 *315:31 *381:64 0.000120655
70 *333:25 *4326:D_N 0
71 *333:40 *381:73 2.05056e-05
72 *360:33 *381:32 8.23457e-05
73 *360:44 *4326:D_N 0
74 *360:44 *381:32 0.000111925
75 *360:44 *381:39 0.00106302
*RES
1 *4237:X *381:22 44.415 
2 *381:22 *381:24 36.675 
3 *381:24 *381:32 5.415 
4 *381:32 *4325:B 1.6 
5 *381:32 *381:39 12.18 
6 *381:39 *4326:D_N 9.275 
7 *381:39 *381:54 7.275 
8 *381:54 *381:64 8.245 
9 *381:64 *4239:B1 1.6 
10 *381:64 *381:73 3.83 
11 *381:73 *4290:B1 6.285 
12 *381:73 *4238:B 9.225 
13 *381:54 *4289:D_N 2.05 
14 *381:24 *4327:B1 7.235 
*END

*D_NET *382 0.00116243
*CONN
*I *4266:A2 I *D sky130_fd_sc_hd__a22oi_2
*I *4240:A2 I *D sky130_fd_sc_hd__a21boi_2
*I *4238:X O *D sky130_fd_sc_hd__and2_2
*CAP
1 *4266:A2 0.000125603
2 *4240:A2 0
3 *4238:X 0.000228346
4 *382:10 0.000353948
5 *4266:A2 *4241:B 0.000115253
6 *382:10 *858:55 0.000146586
7 *382:10 *858:64 3.96653e-05
8 *4266:A1 *4266:A2 2.34423e-05
9 *350:8 *4266:A2 1.34361e-05
10 *350:8 *382:10 0.000116151
11 *362:10 *4266:A2 0
12 *362:10 *382:10 0
*RES
1 *4238:X *382:10 7.155 
2 *382:10 *4240:A2 3.6 
3 *382:10 *4266:A2 6.195 
*END

*D_NET *383 0.00100088
*CONN
*I *4266:B1 I *D sky130_fd_sc_hd__a22oi_2
*I *4240:B1_N I *D sky130_fd_sc_hd__a21boi_2
*I *4239:X O *D sky130_fd_sc_hd__a2bb2o_2
*CAP
1 *4266:B1 0.000108796
2 *4240:B1_N 0
3 *4239:X 0.000204023
4 *383:8 0.00031282
5 *4266:B1 *4241:B 0
6 *4266:B1 *869:22 6.77185e-05
7 *4266:B1 *903:31 4.82863e-05
8 *383:8 *869:22 0.000237243
9 *383:8 *903:31 1.32806e-05
10 *4266:A1 *4266:B1 0
11 *4266:B2 *4266:B1 8.7152e-06
*RES
1 *4239:X *383:8 4.48 
2 *383:8 *4240:B1_N 1.6 
3 *383:8 *4266:B1 7.685 
*END

*D_NET *384 0.000781749
*CONN
*I *4241:B I *D sky130_fd_sc_hd__xnor2_2
*I *4240:Y O *D sky130_fd_sc_hd__a21boi_2
*CAP
1 *4241:B 0.00023561
2 *4240:Y 0.00023561
3 *4241:B *409:8 0
4 *4241:B *880:25 7.63125e-05
5 *4241:B *903:31 4.66108e-05
6 *4266:A1 *4241:B 7.23533e-05
7 *4266:A2 *4241:B 0.000115253
8 *4266:B1 *4241:B 0
9 *4266:B2 *4241:B 0
10 *362:10 *4241:B 0
*RES
1 *4240:Y *4241:B 11.325 
*END

*D_NET *385 0.00243332
*CONN
*I *4256:A_N I *D sky130_fd_sc_hd__nand2b_2
*I *4257:A I *D sky130_fd_sc_hd__xor2_2
*I *4241:Y O *D sky130_fd_sc_hd__xnor2_2
*CAP
1 *4256:A_N 0
2 *4257:A 0.00041287
3 *4241:Y 0.000359969
4 *385:12 0.000772839
5 *4257:A *4256:B 0.000485705
6 *385:12 *4265:A2 0
7 *385:12 *4696:A 0.000128949
8 *385:12 *400:12 0
9 *385:12 *869:39 0.000272984
10 *4252:A *385:12 0
*RES
1 *4241:Y *385:12 11.795 
2 *385:12 *4257:A 8.215 
3 *385:12 *4256:A_N 1.6 
*END

*D_NET *386 0.00034685
*CONN
*I *4243:C1 I *D sky130_fd_sc_hd__a221o_2
*I *4242:X O *D sky130_fd_sc_hd__and4b_2
*CAP
1 *4243:C1 0.000121624
2 *4242:X 0.000121624
3 *4243:C1 *4242:B 0
4 *4243:C1 *4243:B2 4.43871e-06
5 *4243:C1 *1029:55 4.99619e-05
6 *4243:B1 *4243:C1 4.92014e-05
*RES
1 *4242:X *4243:C1 9.285 
*END

*D_NET *387 0.00180788
*CONN
*I *4248:B1 I *D sky130_fd_sc_hd__o22ai_2
*I *4243:X O *D sky130_fd_sc_hd__a221o_2
*CAP
1 *4248:B1 0.000597939
2 *4243:X 0.000597939
3 *4248:B1 *4116:A0 5.77827e-05
4 *4248:B1 *4242:D 2.68526e-05
5 *4248:B1 *4243:A1 0.00012657
6 *4248:B1 *4243:B2 1.35051e-05
7 *4248:B1 *1021:30 4.89295e-05
8 *4248:B1 *1026:78 1.82476e-05
9 *4243:A2 *4248:B1 0.000320115
*RES
1 *4243:X *4248:B1 16.185 
*END

*D_NET *388 0.000781096
*CONN
*I *4247:B1 I *D sky130_fd_sc_hd__a2111o_2
*I *4244:X O *D sky130_fd_sc_hd__and4bb_2
*CAP
1 *4247:B1 0.000102251
2 *4244:X 0.000102251
3 *4247:B1 *4245:B1 4.77757e-05
4 *4247:B1 *4247:C1 8.41307e-05
5 *4247:B1 *1011:94 0.000175425
6 *4247:B1 *1019:114 0.000147721
7 *4247:B1 *1100:20 0.000121541
*RES
1 *4244:X *4247:B1 7.1 
*END

*D_NET *389 0.00154902
*CONN
*I *4247:C1 I *D sky130_fd_sc_hd__a2111o_2
*I *4245:X O *D sky130_fd_sc_hd__o211a_2
*CAP
1 *4247:C1 0.000494243
2 *4245:X 0.000494243
3 *4247:C1 *4100:A1 0
4 *4247:C1 *4100:S 0
5 *4247:C1 *4245:A1 2.75145e-05
6 *4247:C1 *4245:B1 0
7 *4247:C1 *4582:D 7.23533e-05
8 *4247:C1 *4590:CLK 3.16468e-05
9 *4247:C1 *4975:A 4.82863e-05
10 *4247:C1 *1019:114 8.58007e-05
11 *4247:C1 *1057:28 0
12 *4247:C1 *1100:20 0.000117403
13 *4247:B1 *4247:C1 8.41307e-05
14 *4590:D *4247:C1 9.33942e-05
*RES
1 *4245:X *4247:C1 16.455 
*END

*D_NET *390 0.000282658
*CONN
*I *4247:D1 I *D sky130_fd_sc_hd__a2111o_2
*I *4246:X O *D sky130_fd_sc_hd__and4b_2
*CAP
1 *4247:D1 6.19382e-05
2 *4246:X 6.19382e-05
3 *4247:D1 *4248:B2 7.23533e-05
4 *4247:D1 *1019:114 4.77757e-05
5 *4247:D1 *1100:20 3.86529e-05
*RES
1 *4246:X *4247:D1 8.52 
*END

*D_NET *391 0.00113283
*CONN
*I *4248:B2 I *D sky130_fd_sc_hd__o22ai_2
*I *4247:X O *D sky130_fd_sc_hd__a2111o_2
*CAP
1 *4248:B2 0.000447
2 *4247:X 0.000447
3 *4248:B2 *4124:S 0
4 *4248:B2 *4242:D 2.68464e-05
5 *4248:B2 *392:18 2.97802e-05
6 *4248:B2 *1003:58 0
7 *4248:B2 *1019:114 4.77388e-05
8 *4248:B2 *1021:30 4.89295e-05
9 *4248:B2 *1026:78 0
10 *4248:B2 *1026:89 0
11 *4248:B2 *1100:20 1.31821e-05
12 *4247:D1 *4248:B2 7.23533e-05
13 *4823:A *4248:B2 0
14 *4856:A *4248:B2 0
*RES
1 *4247:X *4248:B2 14.37 
*END

*D_NET *392 0.0104412
*CONN
*I *4324:B I *D sky130_fd_sc_hd__nor2_2
*I *4250:B I *D sky130_fd_sc_hd__or2_2
*I *4249:B I *D sky130_fd_sc_hd__nor2_2
*I *4378:B I *D sky130_fd_sc_hd__nor2_2
*I *4248:Y O *D sky130_fd_sc_hd__o22ai_2
*CAP
1 *4324:B 0
2 *4250:B 0.00034018
3 *4249:B 0.000179312
4 *4378:B 4.35855e-05
5 *4248:Y 0.00121637
6 *392:41 0.00219191
7 *392:31 0.00189263
8 *392:18 0.00148017
9 *4249:B *409:8 0
10 *4249:B *434:12 0
11 *4249:B *436:10 0
12 *4249:B *914:29 4.89395e-05
13 *4249:B *936:16 2.69217e-05
14 *392:18 *4124:S 3.75754e-05
15 *392:18 *4248:A2 5.16418e-05
16 *392:18 *4379:B 0
17 *392:18 *4606:RESET_B 0.000239613
18 *392:18 *4610:RESET_B 0.000123517
19 *392:18 *705:38 2.39642e-05
20 *392:18 *969:99 6.50768e-05
21 *392:18 *1026:42 0
22 *392:31 *4339:B1 0
23 *392:31 *4340:A2 3.09164e-05
24 *392:31 *469:12 0
25 *392:31 *705:38 0.000339294
26 *392:41 *4291:C 1.34594e-05
27 *392:41 *4309:A2 2.19562e-06
28 *392:41 *4309:B1_N 0.000271409
29 *392:41 *4329:A2 3.37941e-05
30 *392:41 *4340:A2 0.000139245
31 *392:41 *4376:A 3.81908e-06
32 *392:41 *4381:A 0.000500251
33 *392:41 *409:8 0
34 *392:41 *434:12 5.05437e-05
35 *392:41 *705:38 0.000140912
36 *392:41 *869:22 3.09164e-05
37 *4243:A2 *392:18 0
38 *4248:B2 *392:18 2.97802e-05
39 *4266:B2 *392:41 4.03082e-05
40 *4823:A *392:18 0
41 *256:18 *4378:B 0.000271694
42 *256:18 *392:31 0.00015896
43 *279:21 *392:18 0
44 *297:12 *392:31 0
45 *360:44 *4378:B 0.000273369
46 *360:44 *392:31 0.000148972
*RES
1 *4248:Y *392:18 21.5941 
2 *392:18 *4378:B 4.12 
3 *392:18 *392:31 7.67 
4 *392:31 *392:41 26.08 
5 *392:41 *4249:B 6.705 
6 *392:41 *4250:B 8.19 
7 *392:31 *4324:B 3.6 
*END

*D_NET *393 0.00508645
*CONN
*I *4251:B I *D sky130_fd_sc_hd__nand2_2
*I *4275:A I *D sky130_fd_sc_hd__nand2_2
*I *4308:A2 I *D sky130_fd_sc_hd__a31o_2
*I *4276:A I *D sky130_fd_sc_hd__xor2_2
*I *4322:A I *D sky130_fd_sc_hd__and3_2
*I *4249:Y O *D sky130_fd_sc_hd__nor2_2
*CAP
1 *4251:B 0.000160434
2 *4275:A 0.000362665
3 *4308:A2 0.000286541
4 *4276:A 0.000244251
5 *4322:A 0.000383421
6 *4249:Y 0.000193349
7 *393:51 0.000523099
8 *393:25 0.000530792
9 *393:12 0.000516446
10 *393:10 0.000326374
11 *4251:B *438:12 0.000307482
12 *4275:A *4295:A 4.22944e-05
13 *4275:A *4295:B 4.77807e-05
14 *4275:A *4323:A 7.11301e-05
15 *4275:A *417:29 1.26044e-05
16 *4275:A *417:44 8.05529e-05
17 *4275:A *438:12 0.000197943
18 *4276:A *419:8 3.04831e-05
19 *4276:A *436:16 4.7072e-06
20 *4308:A2 *4308:A3 1.08758e-05
21 *4308:A2 *4308:B1 8.89279e-05
22 *4308:A2 *419:8 0.00012677
23 *4322:A *4278:A 7.60803e-05
24 *4322:A *438:12 0
25 *4322:A *722:52 0.000193666
26 *393:10 *409:8 0.000108349
27 *393:10 *914:29 4.77807e-05
28 *393:12 *4278:A 1.10435e-05
29 *393:12 *409:8 5.16625e-05
30 *4308:A1 *4308:A2 4.89395e-05
*RES
1 *4249:Y *393:10 7.47 
2 *393:10 *393:12 2.145 
3 *393:12 *4322:A 10.5 
4 *393:12 *393:25 2 
5 *393:25 *4276:A 5.62 
6 *393:25 *4308:A2 7.36 
7 *393:10 *393:51 2 
8 *393:51 *4275:A 9.31 
9 *393:51 *4251:B 5.17 
*END

*D_NET *394 0.000373877
*CONN
*I *4252:B I *D sky130_fd_sc_hd__xnor2_2
*I *4250:X O *D sky130_fd_sc_hd__or2_2
*CAP
1 *4252:B 0.000186938
2 *4250:X 0.000186938
*RES
1 *4250:X *4252:B 5.72 
*END

*D_NET *395 0.00108071
*CONN
*I *4279:A I *D sky130_fd_sc_hd__xnor2_2
*I *4251:Y O *D sky130_fd_sc_hd__nand2_2
*CAP
1 *4279:A 0.000374218
2 *4251:Y 0.000374218
3 *4279:A *4696:A 0.000332274
4 *4279:A *450:8 0
*RES
1 *4251:Y *4279:A 13.995 
*END

*D_NET *396 0.000691322
*CONN
*I *4253:B I *D sky130_fd_sc_hd__xor2_2
*I *4265:A2 I *D sky130_fd_sc_hd__a21o_2
*I *4252:Y O *D sky130_fd_sc_hd__xnor2_2
*CAP
1 *4253:B 5.85797e-05
2 *4265:A2 0.000151264
3 *4252:Y 0
4 *396:4 0.000209844
5 *4265:A2 *400:12 3.02702e-05
6 *4252:A *4265:A2 8.53113e-06
7 *4253:A *4253:B 0.000103057
8 *4253:A *4265:A2 1.08758e-05
9 *4265:A1 *4265:A2 9.39029e-05
10 *351:25 *4265:A2 2.4997e-05
11 *385:12 *4265:A2 0
*RES
1 *4252:Y *396:4 1.6 
2 *396:4 *4265:A2 8.795 
3 *396:4 *4253:B 1.0875 
*END

*D_NET *397 0.00157416
*CONN
*I *4254:C I *D sky130_fd_sc_hd__and3_2
*I *4255:B I *D sky130_fd_sc_hd__xnor2_2
*I *4253:X O *D sky130_fd_sc_hd__xor2_2
*CAP
1 *4254:C 0.00029725
2 *4255:B 0.000305766
3 *4253:X 0
4 *397:6 0.000603016
5 *4255:B *4257:B 0.000158845
6 *4255:B *408:14 7.77943e-06
7 *4255:A *4254:C 0
8 *4255:A *4255:B 0
9 *334:6 *4254:C 8.65961e-05
10 *334:17 *4254:C 0.000114912
*RES
1 *4253:X *397:6 3.6 
2 *397:6 *4255:B 8.835 
3 *397:6 *4254:C 7.59 
*END

*D_NET *398 0.00092323
*CONN
*I *4265:B1 I *D sky130_fd_sc_hd__a21o_2
*I *4254:X O *D sky130_fd_sc_hd__and3_2
*CAP
1 *4265:B1 0.000118083
2 *4254:X 0.000118083
3 *4255:A *4265:B1 0.000316153
4 *4265:A1 *4265:B1 0.000164344
5 *334:6 *4265:B1 4.66108e-05
6 *351:25 *4265:B1 0.000159957
*RES
1 *4254:X *4265:B1 11.325 
*END

*D_NET *399 0.00148757
*CONN
*I *4256:B I *D sky130_fd_sc_hd__nand2b_2
*I *4257:B I *D sky130_fd_sc_hd__xor2_2
*I *4255:Y O *D sky130_fd_sc_hd__xnor2_2
*CAP
1 *4256:B 0.000171541
2 *4257:B 0.00022551
3 *4255:Y 5.39689e-05
4 *4256:B *400:12 2.69153e-05
5 *4256:B *408:14 0.000212713
6 *4257:B *408:14 0.000103434
7 *4255:B *4257:B 0.000158845
8 *4257:A *4256:B 0.000485705
9 *4265:A1 *4256:B 4.89395e-05
*RES
1 *4255:Y *4257:B 7.745 
2 *4257:B *4256:B 7.5775 
*END

*D_NET *400 0.00126752
*CONN
*I *4299:A I *D sky130_fd_sc_hd__xnor2_2
*I *4298:A I *D sky130_fd_sc_hd__or2_2
*I *4256:Y O *D sky130_fd_sc_hd__nand2b_2
*CAP
1 *4299:A 0.000142304
2 *4298:A 0
3 *4256:Y 0.000382115
4 *400:12 0.000524419
5 *4299:A *4299:B 0.0001615
6 *4256:B *400:12 2.69153e-05
7 *4265:A2 *400:12 3.02702e-05
8 *385:12 *400:12 0
*RES
1 *4256:Y *400:12 12.02 
2 *400:12 *4298:A 1.6 
3 *400:12 *4299:A 4.135 
*END

*D_NET *401 0.00128365
*CONN
*I *4261:A I *D sky130_fd_sc_hd__xnor2_2
*I *4259:A_N I *D sky130_fd_sc_hd__and2b_2
*I *4257:X O *D sky130_fd_sc_hd__xor2_2
*CAP
1 *4261:A 8.48241e-05
2 *4259:A_N 7.2789e-05
3 *4257:X 0.000217035
4 *401:10 0.000374648
5 *4259:A_N *404:10 2.49909e-05
6 *4261:A *4259:B 0.000178255
7 *401:10 *4259:B 3.25831e-05
8 *401:10 *404:10 0.000116853
9 *401:10 *449:10 0.000181673
*RES
1 *4257:X *401:10 8.355 
2 *401:10 *4259:A_N 4.74 
3 *401:10 *4261:A 5.745 
*END

*D_NET *402 0.00283071
*CONN
*I *4259:B I *D sky130_fd_sc_hd__and2b_2
*I *4261:B I *D sky130_fd_sc_hd__xnor2_2
*I *4258:Y O *D sky130_fd_sc_hd__o31ai_2
*CAP
1 *4259:B 0.000166998
2 *4261:B 0
3 *4258:Y 0.000909292
4 *402:12 0.00107629
5 *4170:B *402:12 0
6 *4191:B *402:12 3.50599e-05
7 *4193:A *402:12 0
8 *4220:A *402:12 8.68646e-05
9 *4220:B *402:12 0.000163992
10 *4222:A *402:12 0
11 *4222:B *402:12 0
12 *4258:A3 *402:12 0
13 *4258:B1 *402:12 0
14 *4261:A *4259:B 0.000178255
15 *334:17 *402:12 0
16 *353:18 *402:12 0.000181376
17 *401:10 *4259:B 3.25831e-05
*RES
1 *4258:Y *402:12 21.575 
2 *402:12 *4261:B 1.6 
3 *402:12 *4259:B 8.795 
*END

*D_NET *403 0.000180834
*CONN
*I *4260:A I *D sky130_fd_sc_hd__inv_2
*I *4259:X O *D sky130_fd_sc_hd__and2b_2
*CAP
1 *4260:A 7.17711e-05
2 *4259:X 7.17711e-05
3 *4260:A *404:10 3.72916e-05
*RES
1 *4259:X *4260:A 4.61 
*END

*D_NET *404 0.00133088
*CONN
*I *4303:A I *D sky130_fd_sc_hd__and2_2
*I *4302:A I *D sky130_fd_sc_hd__nor2_2
*I *4260:Y O *D sky130_fd_sc_hd__inv_2
*CAP
1 *4303:A 0
2 *4302:A 0.000128973
3 *4260:Y 0.000341508
4 *404:10 0.000470481
5 *4302:A *4303:B 0.000101637
6 *4302:A *444:6 4.77807e-05
7 *404:10 *4303:B 5.31158e-06
8 *404:10 *4307:A1 0
9 *404:10 *4307:B1_N 1.56261e-05
10 *404:10 *445:10 4.04268e-05
11 *4259:A_N *404:10 2.49909e-05
12 *4260:A *404:10 3.72916e-05
13 *401:10 *404:10 0.000116853
*RES
1 *4260:Y *404:10 9.195 
2 *404:10 *4302:A 6.45 
3 *404:10 *4303:A 3.6 
*END

*D_NET *405 0.000754726
*CONN
*I *4263:B I *D sky130_fd_sc_hd__xnor2_2
*I *4262:B I *D sky130_fd_sc_hd__nand2b_2
*I *4261:Y O *D sky130_fd_sc_hd__xnor2_2
*CAP
1 *4263:B 5.71132e-05
2 *4262:B 8.65134e-05
3 *4261:Y 0.00014631
4 *405:6 0.000289937
5 *4262:B *406:10 0.000164686
6 *4263:A *4262:B 1.01661e-05
*RES
1 *4261:Y *405:6 3.775 
2 *405:6 *4262:B 7.745 
3 *405:6 *4263:B 2.395 
*END

*D_NET *406 0.00120449
*CONN
*I *4305:A I *D sky130_fd_sc_hd__xnor2_2
*I *4307:A1 I *D sky130_fd_sc_hd__o21bai_2
*I *4262:Y O *D sky130_fd_sc_hd__nand2b_2
*CAP
1 *4305:A 5.4368e-05
2 *4307:A1 0.000265581
3 *4262:Y 0.000153748
4 *406:10 0.000473697
5 *4307:A1 *4305:B 0
6 *4262:B *406:10 0.000164686
7 *4263:A *406:10 9.24127e-05
8 *261:55 *4307:A1 0
9 *404:10 *4307:A1 0
*RES
1 *4262:Y *406:10 9.275 
2 *406:10 *4307:A1 9.485 
3 *406:10 *4305:A 2.395 
*END

*D_NET *407 0.000759244
*CONN
*I *4264:A0 I *D sky130_fd_sc_hd__mux2_1
*I *4263:Y O *D sky130_fd_sc_hd__xnor2_2
*CAP
1 *4264:A0 0.000286916
2 *4263:Y 0.000286916
3 *4264:A0 *4400:B1 0.000185411
4 *4466:S *4264:A0 0
*RES
1 *4263:Y *4264:A0 11.865 
*END

*D_NET *408 0.00244431
*CONN
*I *4301:A I *D sky130_fd_sc_hd__xor2_2
*I *4300:B I *D sky130_fd_sc_hd__nand2b_2
*I *4265:X O *D sky130_fd_sc_hd__a21o_2
*CAP
1 *4301:A 0
2 *4300:B 0.000220524
3 *4265:X 0.000448169
4 *408:14 0.000668693
5 *4300:B *4300:A_N 0.000270079
6 *4300:B *4301:B 0.000115945
7 *4300:B *4353:C 0
8 *4300:B *4357:B1 0.000135231
9 *4300:B *443:8 2.96334e-05
10 *4300:B *495:8 0.000232111
11 *4255:B *408:14 7.77943e-06
12 *4256:B *408:14 0.000212713
13 *4257:B *408:14 0.000103434
*RES
1 *4265:X *408:14 11.805 
2 *408:14 *4300:B 10.065 
3 *408:14 *4301:A 3.6 
*END

*D_NET *409 0.00202498
*CONN
*I *4277:A_N I *D sky130_fd_sc_hd__and2b_2
*I *4278:A I *D sky130_fd_sc_hd__xnor2_2
*I *4266:Y O *D sky130_fd_sc_hd__a22oi_2
*CAP
1 *4277:A_N 0
2 *4278:A 0.000136817
3 *4266:Y 0.00064163
4 *409:8 0.000778447
5 *4278:A *4278:B 5.02881e-05
6 *4278:A *438:12 0
7 *4278:A *722:52 2.75229e-05
8 *409:8 *880:25 7.44453e-05
9 *4241:B *409:8 0
10 *4249:B *409:8 0
11 *4266:B2 *409:8 6.86906e-05
12 *4322:A *4278:A 7.60803e-05
13 *362:10 *409:8 0
14 *392:41 *409:8 0
15 *393:10 *409:8 0.000108349
16 *393:12 *4278:A 1.10435e-05
17 *393:12 *409:8 5.16625e-05
*RES
1 *4266:Y *409:8 15.18 
2 *409:8 *4278:A 6.705 
3 *409:8 *4277:A_N 3.6 
*END

*D_NET *410 0.000338981
*CONN
*I *4273:A1 I *D sky130_fd_sc_hd__o32ai_2
*I *4267:X O *D sky130_fd_sc_hd__and2_2
*CAP
1 *4273:A1 0.000111089
2 *4267:X 0.000111089
3 *4273:A1 *4973:A 6.90254e-05
4 *4273:A1 *985:99 4.77769e-05
*RES
1 *4267:X *4273:A1 9.03 
*END

*D_NET *411 0.00118791
*CONN
*I *4273:A2 I *D sky130_fd_sc_hd__o32ai_2
*I *4268:X O *D sky130_fd_sc_hd__a22o_2
*CAP
1 *4273:A2 0.000444334
2 *4268:X 0.000444334
3 *4273:A2 *4268:B1 0.000160338
4 *4273:A2 *4268:B2 6.87436e-05
5 *4273:A2 *4273:B1 2.01737e-05
6 *4273:A2 *4273:B2 4.41506e-05
7 *4273:A2 *4599:D 5.83121e-06
*RES
1 *4268:X *4273:A2 9.215 
*END

*D_NET *412 0.000646504
*CONN
*I *4272:B1 I *D sky130_fd_sc_hd__a2111o_2
*I *4269:X O *D sky130_fd_sc_hd__and4b_2
*CAP
1 *4272:B1 0.000188094
2 *4269:X 0.000188094
3 *4272:B1 *4267:A 2.40658e-05
4 *4272:B1 *4269:D 2.01737e-05
5 *4272:B1 *4272:C1 9.53128e-05
6 *4272:B1 *4272:D1 9.27736e-05
7 *4272:B1 *1008:35 2.78246e-05
8 *4272:A2 *4272:B1 1.01661e-05
*RES
1 *4269:X *4272:B1 10.41 
*END

*D_NET *413 0.000643181
*CONN
*I *4272:C1 I *D sky130_fd_sc_hd__a2111o_2
*I *4270:Y O *D sky130_fd_sc_hd__nor4b_2
*CAP
1 *4272:C1 0.000124484
2 *4270:Y 0.000124484
3 *4272:C1 *4267:A 0.000112589
4 *4272:C1 *4270:D_N 0.000121039
5 *4272:C1 *4272:D1 2.39947e-05
6 *4272:C1 *1008:35 4.12775e-05
7 *4272:B1 *4272:C1 9.53128e-05
*RES
1 *4270:Y *4272:C1 10.41 
*END

*D_NET *414 0.00174092
*CONN
*I *4272:D1 I *D sky130_fd_sc_hd__a2111o_2
*I *4271:X O *D sky130_fd_sc_hd__o211a_2
*CAP
1 *4272:D1 0.000331519
2 *4271:X 0.000331519
3 *4272:D1 *4267:A 4.31108e-05
4 *4272:D1 *4271:C1 0.000233557
5 *4272:D1 *4600:RESET_B 8.33066e-06
6 *4272:D1 *4777:A 8.83862e-05
7 *4272:D1 *1030:8 0.000414916
8 *4272:D1 *1031:8 2.382e-05
9 *4272:A2 *4272:D1 0.000148989
10 *4272:B1 *4272:D1 9.27736e-05
11 *4272:C1 *4272:D1 2.39947e-05
*RES
1 *4271:X *4272:D1 16.005 
*END

*D_NET *415 0.00184856
*CONN
*I *4273:A3 I *D sky130_fd_sc_hd__o32ai_2
*I *4272:X O *D sky130_fd_sc_hd__a2111o_2
*CAP
1 *4273:A3 0.000737334
2 *4272:X 0.000737334
3 *4273:A3 *4070:A1 7.20786e-05
4 *4273:A3 *4607:CLK 6.58423e-05
5 *4273:A3 *4607:RESET_B 2.56899e-05
6 *4273:A3 *4615:RESET_B 8.33066e-06
7 *4273:A3 *991:12 6.91231e-05
8 *4273:A3 *994:69 0.000132827
*RES
1 *4272:X *4273:A3 17.685 
*END

*D_NET *416 0.0108593
*CONN
*I *5089:A I *D sky130_fd_sc_hd__clkbuf_2
*I *4273:Y O *D sky130_fd_sc_hd__o32ai_2
*CAP
1 *5089:A 0.00419917
2 *4273:Y 0.00419917
3 *5089:A *4268:B1 0.000101386
4 *5089:A *4693:A 1.92979e-05
5 *5089:A *612:20 0
6 *5089:A *696:37 0
7 *5089:A *982:174 0.00122961
8 *5089:A *991:12 1.17614e-05
9 *4025:S *5089:A 0.000886217
10 *4044:S *5089:A 0.00010204
11 *4268:A2 *5089:A 0.000110612
12 *272:149 *5089:A 0
*RES
1 *4273:Y *5089:A 18.9949 
*END

*D_NET *417 0.00438887
*CONN
*I *4320:A1 I *D sky130_fd_sc_hd__a21oi_2
*I *4276:B I *D sky130_fd_sc_hd__xor2_2
*I *4322:B I *D sky130_fd_sc_hd__and3_2
*I *4275:B I *D sky130_fd_sc_hd__nand2_2
*I *4318:A I *D sky130_fd_sc_hd__nand2_2
*I *4274:Y O *D sky130_fd_sc_hd__nor2_2
*CAP
1 *4320:A1 0
2 *4276:B 0
3 *4322:B 0.000153378
4 *4275:B 0
5 *4318:A 0
6 *4274:Y 0.000209087
7 *417:44 0.000569094
8 *417:29 0.000978058
9 *417:18 0.000663344
10 *417:12 0.000310088
11 *4322:B *4386:B1 0.000135382
12 *4322:B *722:52 0.000124007
13 *417:12 *705:38 6.97199e-05
14 *417:18 *4318:B 4.77769e-05
15 *417:18 *462:14 0.000234763
16 *417:29 *4382:A 0.000156612
17 *417:29 *4383:B 8.41384e-05
18 *417:29 *462:14 0.000283127
19 *417:44 *4295:A 8.52972e-05
20 *417:44 *4323:A 0.000122817
21 *417:44 *436:16 6.90254e-05
22 *4275:A *417:29 1.26044e-05
23 *4275:A *417:44 8.05529e-05
*RES
1 *4274:Y *417:12 9.23 
2 *417:12 *417:18 2.895 
3 *417:18 *4318:A 1.6 
4 *417:18 *417:29 10.83 
5 *417:29 *4275:B 1.6 
6 *417:29 *417:44 8.345 
7 *417:44 *4322:B 6.375 
8 *417:44 *4276:B 2 
9 *417:12 *4320:A1 1.6 
*END

*D_NET *418 0.00103014
*CONN
*I *4323:A I *D sky130_fd_sc_hd__xnor2_2
*I *4275:Y O *D sky130_fd_sc_hd__nand2_2
*CAP
1 *4323:A 0.000301991
2 *4275:Y 0.000301991
3 *4323:A *4344:B1 6.14776e-05
4 *4323:A *4386:B1 0
5 *4323:A *436:27 9.44104e-05
6 *4323:A *485:10 7.63204e-05
7 *4275:A *4323:A 7.11301e-05
8 *417:44 *4323:A 0.000122817
*RES
1 *4275:Y *4323:A 14.055 
*END

*D_NET *419 0.000729847
*CONN
*I *4277:B I *D sky130_fd_sc_hd__and2b_2
*I *4278:B I *D sky130_fd_sc_hd__xnor2_2
*I *4276:X O *D sky130_fd_sc_hd__xor2_2
*CAP
1 *4277:B 0
2 *4278:B 5.84508e-05
3 *4276:X 0.000165654
4 *419:8 0.000224104
5 *4278:B *438:12 7.40975e-05
6 *4276:A *419:8 3.04831e-05
7 *4278:A *4278:B 5.02881e-05
8 *4308:A2 *419:8 0.00012677
*RES
1 *4276:X *419:8 4.48 
2 *419:8 *4278:B 7.235 
3 *419:8 *4277:B 1.6 
*END

*D_NET *420 0.000287104
*CONN
*I *4308:B1 I *D sky130_fd_sc_hd__a31o_2
*I *4277:X O *D sky130_fd_sc_hd__and2b_2
*CAP
1 *4308:B1 9.90881e-05
2 *4277:X 9.90881e-05
3 *4308:A2 *4308:B1 8.89279e-05
*RES
1 *4277:X *4308:B1 4.7 
*END

*D_NET *421 0.000734579
*CONN
*I *4279:B I *D sky130_fd_sc_hd__xnor2_2
*I *4308:A3 I *D sky130_fd_sc_hd__a31o_2
*I *4278:Y O *D sky130_fd_sc_hd__xnor2_2
*CAP
1 *4279:B 7.82349e-05
2 *4308:A3 0.000141366
3 *4278:Y 2.24155e-05
4 *421:6 0.000242016
5 *4279:B *722:42 4.21973e-05
6 *4279:B *722:52 4.66826e-05
7 *4308:A3 *4729:A 8.72419e-05
8 *4308:A3 *422:10 3.09233e-05
9 *4308:A3 *438:12 0
10 *4308:A3 *450:8 5.11148e-06
11 *421:6 *722:52 2.75145e-05
12 *4308:A2 *4308:A3 1.08758e-05
*RES
1 *4278:Y *421:6 2.05 
2 *421:6 *4308:A3 8.45 
3 *421:6 *4279:B 3.085 
*END

*D_NET *422 0.000879923
*CONN
*I *4297:A I *D sky130_fd_sc_hd__xnor2_2
*I *4296:A I *D sky130_fd_sc_hd__nand2_2
*I *4279:Y O *D sky130_fd_sc_hd__xnor2_2
*CAP
1 *4297:A 0
2 *4296:A 0.00018257
3 *4279:Y 9.19402e-05
4 *422:10 0.00027451
5 *4296:A *4297:B 0.000164874
6 *4296:A *439:10 3.00381e-05
7 *422:10 *438:12 0
8 *422:10 *450:8 0.000105068
9 *4308:A3 *422:10 3.09233e-05
*RES
1 *4279:Y *422:10 7.745 
2 *422:10 *4296:A 5.185 
3 *422:10 *4297:A 1.6 
*END

*D_NET *423 0.000203974
*CONN
*I *4281:C1 I *D sky130_fd_sc_hd__a221o_2
*I *4280:X O *D sky130_fd_sc_hd__and4bb_2
*CAP
1 *4281:C1 0.000101987
2 *4280:X 0.000101987
3 *4281:C1 *4280:C 0
4 *4281:C1 *4281:A2 0
5 *4281:C1 *4284:A_N 0
6 *4281:C1 *982:111 0
*RES
1 *4280:X *4281:C1 8.58 
*END

*D_NET *424 0.00169259
*CONN
*I *4286:B1 I *D sky130_fd_sc_hd__o22a_2
*I *4281:X O *D sky130_fd_sc_hd__a221o_2
*CAP
1 *4286:B1 0.000400428
2 *4281:X 0.000400428
3 *4286:B1 *3996:A0 1.91597e-05
4 *4286:B1 *4281:A1 0.000399549
5 *4286:B1 *4286:B2 0.000131882
6 *4286:B1 *635:10 0.000116853
7 *4286:B1 *1040:18 0.000224287
*RES
1 *4281:X *4286:B1 15.45 
*END

*D_NET *425 0.00050894
*CONN
*I *4285:B1 I *D sky130_fd_sc_hd__a2111o_2
*I *4282:X O *D sky130_fd_sc_hd__o211a_2
*CAP
1 *4285:B1 9.89363e-05
2 *4282:X 9.89363e-05
3 *4285:B1 *4282:A1 0.000132842
4 *4285:B1 *4282:B1 1.0183e-05
5 *4285:B1 *4285:A1 0
6 *4285:B1 *1014:8 8.40213e-05
7 *4285:B1 *1022:26 8.40213e-05
*RES
1 *4282:X *4285:B1 9.63 
*END

*D_NET *426 0.000800428
*CONN
*I *4285:C1 I *D sky130_fd_sc_hd__a2111o_2
*I *4283:X O *D sky130_fd_sc_hd__and4b_2
*CAP
1 *4285:C1 0.00018543
2 *4283:X 0.00018543
3 *4285:C1 *4286:B2 0.000158066
4 *4285:C1 *1007:20 5.83121e-06
5 *4285:C1 *1007:22 0.000183799
6 *4285:C1 *1010:84 8.1871e-05
*RES
1 *4283:X *4285:C1 7.79 
*END

*D_NET *427 0.000927534
*CONN
*I *4285:D1 I *D sky130_fd_sc_hd__a2111o_2
*I *4284:X O *D sky130_fd_sc_hd__and4b_2
*CAP
1 *4285:D1 0.000182121
2 *4284:X 0.000182121
3 *4285:D1 *4282:A1 5.4003e-05
4 *4285:D1 *4284:A_N 0.000121437
5 *4285:D1 *1007:123 9.41255e-05
6 *4285:D1 *1014:102 0.000293726
*RES
1 *4284:X *4285:D1 11.76 
*END

*D_NET *428 0.0048244
*CONN
*I *4286:B2 I *D sky130_fd_sc_hd__o22a_2
*I *4285:X O *D sky130_fd_sc_hd__a2111o_2
*CAP
1 *4286:B2 0.000853564
2 *4285:X 0.000853564
3 *4286:B2 *4280:C 6.77062e-05
4 *4286:B2 *4281:A1 4.21314e-05
5 *4286:B2 *4285:A1 0.000278111
6 *4286:B2 *4770:A 2.49909e-05
7 *4286:B2 *612:83 2.75229e-05
8 *4286:B2 *635:10 0.000116165
9 *4286:B2 *982:111 0.000197264
10 *4286:B2 *1007:6 7.57202e-05
11 *4286:B2 *1007:16 0.000367561
12 *4286:B2 *1007:20 2.45351e-05
13 *4286:B2 *1010:84 0.00123309
14 *4286:B2 *1025:68 0
15 *4286:B2 *1040:18 0
16 *3994:S *4286:B2 0.000110636
17 *4285:C1 *4286:B2 0.000158066
18 *4286:B1 *4286:B2 0.000131882
19 *266:34 *4286:B2 0.000261882
*RES
1 *4285:X *4286:B2 34.855 
*END

*D_NET *429 0.0215656
*CONN
*I *4370:B I *D sky130_fd_sc_hd__nand2_2
*I *4339:A2_N I *D sky130_fd_sc_hd__o2bb2a_2
*I *4287:B I *D sky130_fd_sc_hd__and2_2
*I *4286:X O *D sky130_fd_sc_hd__o22a_2
*CAP
1 *4370:B 0
2 *4339:A2_N 0.000488599
3 *4287:B 0
4 *4286:X 0
5 *429:40 0.00104675
6 *429:22 0.00202894
7 *429:6 0.00469032
8 *429:4 0.00321953
9 *4339:A2_N *4324:A 5.17355e-05
10 *4339:A2_N *4379:A 0
11 *4339:A2_N *4380:B 0.000109198
12 *4339:A2_N *469:12 4.21973e-05
13 *4339:A2_N *479:10 4.89295e-05
14 *429:6 *4010:A1 8.65905e-05
15 *429:6 *4038:A0 0.000196376
16 *429:6 *4038:A1 0.000164874
17 *429:6 *4080:A0 0.000120655
18 *429:6 *4080:S 1.91597e-05
19 *429:6 *4145:B 0.000158965
20 *429:6 *4788:A 0.000352161
21 *429:6 *612:83 0.00129527
22 *429:6 *1029:65 0.000311294
23 *429:6 *1029:90 0.00103578
24 *429:6 *1047:10 0.000200615
25 *429:22 *4987:A 0.000102029
26 *429:22 *611:49 0.000157995
27 *429:22 *969:46 0
28 *429:22 *1005:46 0.00132343
29 *429:22 *1013:6 0.000617721
30 *429:22 *1021:30 0.000298731
31 *429:22 *1021:42 0.000291568
32 *429:22 *1021:46 8.28738e-05
33 *429:22 *1021:52 8.53113e-06
34 *429:22 *1112:10 4.92096e-05
35 *429:22 *1112:21 1.44259e-05
36 *429:40 *4324:A 4.77757e-05
37 *429:40 *4371:S 0.000158639
38 *429:40 *4374:B 4.82919e-05
39 *429:40 *479:10 0.00033003
40 *429:40 *858:10 7.62088e-05
41 *429:40 *891:26 0.000556456
42 *429:40 *983:20 0
43 *429:40 *1005:46 8.53113e-06
44 *4010:S *429:6 0.000138808
45 *4147:C1 *429:22 4.75576e-05
46 *4239:B2 *4339:A2_N 0.000447925
47 *4243:B1 *429:22 0
48 *4287:A *4339:A2_N 1.01155e-05
49 *4327:B1 *429:22 0
50 *4507:D *429:6 0.000234674
51 *4530:D *429:6 7.49434e-05
52 *273:12 *429:6 0.000526579
53 *273:26 *429:6 1.12578e-05
54 *273:80 *429:6 4.38278e-05
55 *296:39 *4339:A2_N 8.49205e-05
56 *332:8 *429:40 1.56615e-05
57 *332:19 *429:22 5.53249e-06
58 *332:19 *429:40 8.34426e-05
*RES
1 *4286:X *429:4 1.6 
2 *429:4 *429:6 61.17 
3 *429:6 *429:22 34.74 
4 *429:22 *429:40 15.65 
5 *429:40 *4287:B 1.6 
6 *429:40 *4339:A2_N 13.7 
7 *429:22 *4370:B 3.6 
*END

*D_NET *430 0.00514763
*CONN
*I *4338:A I *D sky130_fd_sc_hd__nand2_2
*I *4293:A I *D sky130_fd_sc_hd__and3_2
*I *4294:B1 I *D sky130_fd_sc_hd__a21oi_2
*I *4340:A1 I *D sky130_fd_sc_hd__a21oi_2
*I *4287:X O *D sky130_fd_sc_hd__and2_2
*CAP
1 *4338:A 0.000169158
2 *4293:A 0.000186354
3 *4294:B1 2.08101e-05
4 *4340:A1 3.55506e-05
5 *4287:X 0.000135223
6 *430:27 0.000909621
7 *430:16 0.00117279
8 *430:10 0.000739167
9 *4293:A *4292:B1 0.0001249
10 *4293:A *4293:C 0.000161158
11 *4293:A *4294:A1 2.96426e-05
12 *4293:A *4294:A2 2.30292e-05
13 *4293:A *4295:B 0.000344641
14 *4294:B1 *4294:A1 0
15 *4294:B1 *4342:B1 0
16 *4338:A *4338:B 3.7837e-05
17 *4340:A1 *4341:C 0
18 *430:10 *4377:A 0.000155219
19 *430:10 *4380:A 0
20 *430:10 *4380:B 0
21 *430:10 *705:38 0
22 *430:10 *858:10 8.52883e-05
23 *430:16 *4377:A 1.08056e-05
24 *430:16 *4380:A 0.000197822
25 *430:16 *4384:A 0.000109653
26 *430:16 *936:16 7.4027e-05
27 *430:27 *4340:B1 5.05437e-05
28 *430:27 *4341:B 0.00012657
29 *430:27 *4342:B1 7.94451e-05
30 *430:27 *4384:A 3.13457e-05
31 *430:27 *471:12 8.40213e-05
32 *430:27 *482:6 2.96334e-05
33 *5059:A *4338:A 2.33708e-05
*RES
1 *4287:X *430:10 6.285 
2 *430:10 *430:16 8.06 
3 *430:16 *4340:A1 2.215 
4 *430:16 *430:27 8.745 
5 *430:27 *4294:B1 1.96 
6 *430:27 *4293:A 7.36 
7 *430:10 *4338:A 6.135 
*END

*D_NET *431 0.00120371
*CONN
*I *4291:A I *D sky130_fd_sc_hd__nand3_2
*I *4309:A1 I *D sky130_fd_sc_hd__a21bo_2
*I *4292:B1 I *D sky130_fd_sc_hd__a21o_2
*I *4288:Y O *D sky130_fd_sc_hd__nor2_2
*CAP
1 *4291:A 4.99787e-05
2 *4309:A1 0
3 *4292:B1 0.000161102
4 *4288:Y 0.000111388
5 *431:21 4.99787e-05
6 *431:8 0.00027249
7 *4291:A *4309:A2 4.27071e-05
8 *4291:A *4309:B1_N 0.0001249
9 *4292:B1 *4292:A1 0
10 *4292:B1 *4293:C 8.8266e-05
11 *4292:B1 *4294:A2 4.99619e-05
12 *4292:B1 *432:12 0
13 *4292:B1 *1012:38 7.07664e-05
14 *431:8 *858:27 0
15 *431:8 *1012:38 5.72742e-05
16 *4293:A *4292:B1 0.0001249
*RES
1 *4288:Y *431:8 5.49 
2 *431:8 *4292:B1 6.885 
3 *431:8 *431:21 2 
4 *431:21 *4309:A1 1.6 
5 *431:21 *4291:A 3.1 
*END

*D_NET *432 0.00221545
*CONN
*I *4309:B1_N I *D sky130_fd_sc_hd__a21bo_2
*I *4291:B I *D sky130_fd_sc_hd__nand3_2
*I *4292:A1 I *D sky130_fd_sc_hd__a21o_2
*I *4289:X O *D sky130_fd_sc_hd__or4b_2
*CAP
1 *4309:B1_N 0.000132071
2 *4291:B 0
3 *4292:A1 7.83425e-05
4 *4289:X 0.000289727
5 *432:12 0.000109144
6 *432:10 0.000452599
7 *4292:A1 *4292:A2 9.30717e-05
8 *4292:A1 *433:10 4.54719e-05
9 *4309:B1_N *4309:A2 2.90771e-05
10 *432:10 *433:8 9.30787e-05
11 *432:10 *858:27 4.9968e-05
12 *432:10 *1012:38 0
13 *432:12 *433:8 4.44927e-05
14 *432:12 *433:10 9.50342e-06
15 *4290:A1_N *432:10 4.63436e-05
16 *4290:B1 *432:10 0
17 *4291:A *4309:B1_N 0.0001249
18 *4292:B1 *4292:A1 0
19 *4292:B1 *432:12 0
20 *4337:A *432:10 0.000140999
21 *256:18 *432:10 1.12459e-05
22 *315:10 *432:10 1.71013e-05
23 *315:31 *432:10 2.09749e-05
24 *381:64 *432:10 0.000155928
25 *392:41 *4309:B1_N 0.000271409
*RES
1 *4289:X *432:10 9.5175 
2 *432:10 *432:12 0.615 
3 *432:12 *4292:A1 5.235 
4 *432:12 *4291:B 3.6 
5 *432:10 *4309:B1_N 7.3125 
*END

*D_NET *433 0.00117927
*CONN
*I *4291:C I *D sky130_fd_sc_hd__nand3_2
*I *4309:A2 I *D sky130_fd_sc_hd__a21bo_2
*I *4292:A2 I *D sky130_fd_sc_hd__a21o_2
*I *4290:X O *D sky130_fd_sc_hd__a2bb2o_2
*CAP
1 *4291:C 3.58965e-05
2 *4309:A2 0.000178413
3 *4292:A2 3.94875e-05
4 *4290:X 7.25668e-05
5 *433:10 0.000233979
6 *433:8 0.000124542
7 *4291:C *434:12 4.99619e-05
8 *4292:A2 *4295:B 1.70935e-05
9 *4292:A2 *434:12 2.16389e-05
10 *433:8 *434:12 1.22762e-05
11 *433:10 *434:12 2.03578e-05
12 *4291:A *4309:A2 4.27071e-05
13 *4292:A1 *4292:A2 9.30717e-05
14 *4292:A1 *433:10 4.54719e-05
15 *4309:B1_N *4309:A2 2.90771e-05
16 *392:41 *4291:C 1.34594e-05
17 *392:41 *4309:A2 2.19562e-06
18 *432:10 *433:8 9.30787e-05
19 *432:12 *433:8 4.44927e-05
20 *432:12 *433:10 9.50342e-06
*RES
1 *4290:X *433:8 5.235 
2 *433:8 *433:10 0.615 
3 *433:10 *4292:A2 4.725 
4 *433:10 *4309:A2 6.045 
5 *433:8 *4291:C 4.395 
*END

*D_NET *434 0.00165976
*CONN
*I *4294:A1 I *D sky130_fd_sc_hd__a21oi_2
*I *4293:B I *D sky130_fd_sc_hd__and3_2
*I *4291:Y O *D sky130_fd_sc_hd__nand3_2
*CAP
1 *4294:A1 0.000279344
2 *4293:B 0
3 *4291:Y 0.000199086
4 *434:12 0.000478429
5 *4294:A1 *4293:C 0.000302188
6 *4294:A1 *4294:A2 8.8266e-05
7 *434:12 *4295:B 0.00011852
8 *434:12 *436:10 9.50342e-06
9 *4249:B *434:12 0
10 *4291:C *434:12 4.99619e-05
11 *4292:A2 *434:12 2.16389e-05
12 *4293:A *4294:A1 2.96426e-05
13 *4294:B1 *4294:A1 0
14 *392:41 *434:12 5.05437e-05
15 *433:8 *434:12 1.22762e-05
16 *433:10 *434:12 2.03578e-05
*RES
1 *4291:Y *434:12 9.305 
2 *434:12 *4293:B 1.6 
3 *434:12 *4294:A1 6.82 
*END

*D_NET *435 0.000923769
*CONN
*I *4293:C I *D sky130_fd_sc_hd__and3_2
*I *4294:A2 I *D sky130_fd_sc_hd__a21oi_2
*I *4292:X O *D sky130_fd_sc_hd__a21o_2
*CAP
1 *4293:C 8.75453e-05
2 *4294:A2 1.11796e-05
3 *4292:X 0
4 *435:4 9.87249e-05
5 *4293:C *4295:B 1.34503e-05
6 *4292:B1 *4293:C 8.8266e-05
7 *4292:B1 *4294:A2 4.99619e-05
8 *4293:A *4293:C 0.000161158
9 *4293:A *4294:A2 2.30292e-05
10 *4294:A1 *4293:C 0.000302188
11 *4294:A1 *4294:A2 8.8266e-05
*RES
1 *4292:X *435:4 1.6 
2 *435:4 *4294:A2 2.395 
3 *435:4 *4293:C 5.08 
*END

*D_NET *436 0.00404906
*CONN
*I *4295:A I *D sky130_fd_sc_hd__nor2_2
*I *4343:A I *D sky130_fd_sc_hd__nand3_2
*I *4344:B1 I *D sky130_fd_sc_hd__a21o_2
*I *4386:A1 I *D sky130_fd_sc_hd__a31o_2
*I *4293:X O *D sky130_fd_sc_hd__and3_2
*CAP
1 *4295:A 5.68165e-05
2 *4343:A 0
3 *4344:B1 0.000501481
4 *4386:A1 4.39668e-05
5 *4293:X 0.000323097
6 *436:27 0.000628413
7 *436:16 0.000520463
8 *436:10 0.000729478
9 *4295:A *4295:B 4.89395e-05
10 *4344:B1 *4321:A 0.000164874
11 *4344:B1 *4323:B 2.75145e-05
12 *4344:B1 *4346:A1 0
13 *4344:B1 *4387:B 0
14 *4344:B1 *4388:A 0
15 *4344:B1 *485:10 0
16 *4344:B1 *486:6 0.00017672
17 *436:10 *4295:B 0.000261661
18 *436:16 *4386:B1 0.000156622
19 *436:27 *4387:B 0
20 *436:27 *1012:38 4.22956e-05
21 *4249:B *436:10 0
22 *4275:A *4295:A 4.22944e-05
23 *4276:A *436:16 4.7072e-06
24 *4323:A *4344:B1 6.14776e-05
25 *4323:A *436:27 9.44104e-05
26 *417:44 *4295:A 8.52972e-05
27 *417:44 *436:16 6.90254e-05
28 *434:12 *436:10 9.50342e-06
*RES
1 *4293:X *436:10 10.02 
2 *436:10 *436:16 6.68 
3 *436:16 *4386:A1 2.05 
4 *436:16 *436:27 4.91 
5 *436:27 *4344:B1 12.585 
6 *436:27 *4343:A 3.6 
7 *436:10 *4295:A 5.1 
*END

*D_NET *437 0.00209055
*CONN
*I *4295:B I *D sky130_fd_sc_hd__nor2_2
*I *4294:Y O *D sky130_fd_sc_hd__a21oi_2
*CAP
1 *4295:B 0.000619231
2 *4294:Y 0.000619231
3 *4275:A *4295:B 4.77807e-05
4 *4292:A2 *4295:B 1.70935e-05
5 *4293:A *4295:B 0.000344641
6 *4293:C *4295:B 1.34503e-05
7 *4295:A *4295:B 4.89395e-05
8 *434:12 *4295:B 0.00011852
9 *436:10 *4295:B 0.000261661
*RES
1 *4294:Y *4295:B 18.54 
*END

*D_NET *438 0.00219396
*CONN
*I *4297:B I *D sky130_fd_sc_hd__xnor2_2
*I *4296:B I *D sky130_fd_sc_hd__nand2_2
*I *4295:Y O *D sky130_fd_sc_hd__nor2_2
*CAP
1 *4297:B 6.27086e-05
2 *4296:B 0
3 *4295:Y 0.000662073
4 *438:12 0.000724782
5 *4251:B *438:12 0.000307482
6 *4275:A *438:12 0.000197943
7 *4278:A *438:12 0
8 *4278:B *438:12 7.40975e-05
9 *4296:A *4297:B 0.000164874
10 *4308:A3 *438:12 0
11 *4322:A *438:12 0
12 *422:10 *438:12 0
*RES
1 *4295:Y *438:12 17.285 
2 *438:12 *4296:B 1.6 
3 *438:12 *4297:B 3.085 
*END

*D_NET *439 0.000762698
*CONN
*I *4348:B1 I *D sky130_fd_sc_hd__o21ai_2
*I *4347:A I *D sky130_fd_sc_hd__or3_2
*I *4296:Y O *D sky130_fd_sc_hd__nand2_2
*CAP
1 *4348:B1 0
2 *4347:A 0.000136823
3 *4296:Y 0.000174269
4 *439:10 0.000311091
5 *4347:A *4347:C 0
6 *4347:A *4389:B 9.46336e-05
7 *4347:A *489:8 1.16578e-05
8 *439:10 *4389:B 4.18603e-06
9 *439:10 *487:23 0
10 *4296:A *439:10 3.00381e-05
*RES
1 *4296:Y *439:10 6.03 
2 *439:10 *4347:A 6.285 
3 *439:10 *4348:B1 3.6 
*END

*D_NET *440 0.00126365
*CONN
*I *4299:B I *D sky130_fd_sc_hd__xnor2_2
*I *4298:B I *D sky130_fd_sc_hd__or2_2
*I *4297:Y O *D sky130_fd_sc_hd__xnor2_2
*CAP
1 *4299:B 9.42067e-05
2 *4298:B 0
3 *4297:Y 0.000358673
4 *440:12 0.00045288
5 *4299:B *441:12 3.33763e-05
6 *440:12 *4696:A 0
7 *440:12 *441:12 0
8 *440:12 *722:42 0.000163012
9 *4299:A *4299:B 0.0001615
*RES
1 *4297:Y *440:12 11.105 
2 *440:12 *4298:B 1.6 
3 *440:12 *4299:B 3.775 
*END

*D_NET *441 0.000933396
*CONN
*I *4352:A1 I *D sky130_fd_sc_hd__a21oi_2
*I *4353:A I *D sky130_fd_sc_hd__nand3_2
*I *4298:X O *D sky130_fd_sc_hd__or2_2
*CAP
1 *4352:A1 0
2 *4353:A 0.000114988
3 *4298:X 0.00017169
4 *441:12 0.000286678
5 *4353:A *4352:A2 0.000164352
6 *4353:A *443:8 0
7 *4353:A *494:8 0.000162311
8 *441:12 *4353:C 0
9 *441:12 *493:10 0
10 *441:12 *722:42 0
11 *4299:B *441:12 3.33763e-05
12 *440:12 *441:12 0
*RES
1 *4298:X *441:12 8.03 
2 *441:12 *4353:A 4.84 
3 *441:12 *4352:A1 1.6 
*END

*D_NET *442 0.00110347
*CONN
*I *4301:B I *D sky130_fd_sc_hd__xor2_2
*I *4300:A_N I *D sky130_fd_sc_hd__nand2b_2
*I *4299:Y O *D sky130_fd_sc_hd__xnor2_2
*CAP
1 *4301:B 5.64928e-05
2 *4300:A_N 0.000228465
3 *4299:Y 0
4 *442:6 0.000284957
5 *4300:A_N *4353:C 0
6 *4300:A_N *4357:B1 2.60908e-05
7 *4300:A_N *443:8 0.000121437
8 *4300:A_N *493:10 0
9 *4300:B *4300:A_N 0.000270079
10 *4300:B *4301:B 0.000115945
*RES
1 *4299:Y *442:6 3.6 
2 *442:6 *4300:A_N 8.1 
3 *442:6 *4301:B 3.38 
*END

*D_NET *443 0.00142616
*CONN
*I *4352:A2 I *D sky130_fd_sc_hd__a21oi_2
*I *4353:B I *D sky130_fd_sc_hd__nand3_2
*I *4300:Y O *D sky130_fd_sc_hd__nand2b_2
*CAP
1 *4352:A2 0.000166909
2 *4353:B 0
3 *4300:Y 0.000123212
4 *443:8 0.000290121
5 *4352:A2 *4353:C 0.000310806
6 *4352:A2 *494:8 5.98073e-05
7 *443:8 *4353:C 2.57174e-05
8 *443:8 *494:8 0.000124895
9 *443:8 *495:8 9.27255e-06
10 *4300:A_N *443:8 0.000121437
11 *4300:B *443:8 2.96334e-05
12 *4353:A *4352:A2 0.000164352
13 *4353:A *443:8 0
*RES
1 *4300:Y *443:8 4.48 
2 *443:8 *4353:B 1.6 
3 *443:8 *4352:A2 6.55 
*END

*D_NET *444 0.000858856
*CONN
*I *4302:B I *D sky130_fd_sc_hd__nor2_2
*I *4303:B I *D sky130_fd_sc_hd__and2_2
*I *4301:X O *D sky130_fd_sc_hd__xor2_2
*CAP
1 *4302:B 4.52529e-05
2 *4303:B 6.09022e-05
3 *4301:X 0.000160065
4 *444:6 0.00026622
5 *4302:B *445:10 1.14192e-05
6 *4303:B *445:10 0.000160266
7 *4302:A *4303:B 0.000101637
8 *4302:A *444:6 4.77807e-05
9 *404:10 *4303:B 5.31158e-06
*RES
1 *4301:X *444:6 4.12 
2 *444:6 *4303:B 7.745 
3 *444:6 *4302:B 2.41 
*END

*D_NET *445 0.00146839
*CONN
*I *4307:B1_N I *D sky130_fd_sc_hd__o21bai_2
*I *4304:A I *D sky130_fd_sc_hd__nor2_2
*I *4302:Y O *D sky130_fd_sc_hd__nor2_2
*CAP
1 *4307:B1_N 4.0217e-05
2 *4304:A 0.000242135
3 *4302:Y 0.000152028
4 *445:10 0.00043438
5 *4304:A *4304:B 5.51574e-05
6 *4304:A *446:12 6.63221e-05
7 *4304:A *449:10 8.35157e-05
8 *4307:B1_N *446:12 4.87939e-05
9 *4307:B1_N *449:10 4.77769e-05
10 *445:10 *446:12 7.03219e-05
11 *4302:B *445:10 1.14192e-05
12 *4303:B *445:10 0.000160266
13 *404:10 *4307:B1_N 1.56261e-05
14 *404:10 *445:10 4.04268e-05
*RES
1 *4302:Y *445:10 7.215 
2 *445:10 *4304:A 7.08 
3 *445:10 *4307:B1_N 4.665 
*END

*D_NET *446 0.000809702
*CONN
*I *4304:B I *D sky130_fd_sc_hd__nor2_2
*I *4307:A2 I *D sky130_fd_sc_hd__o21bai_2
*I *4303:X O *D sky130_fd_sc_hd__and2_2
*CAP
1 *4304:B 0.000130326
2 *4307:A2 0
3 *4303:X 0.000130337
4 *446:12 0.000260663
5 *446:12 *449:10 4.77807e-05
6 *4304:A *4304:B 5.51574e-05
7 *4304:A *446:12 6.63221e-05
8 *4307:B1_N *446:12 4.87939e-05
9 *445:10 *446:12 7.03219e-05
*RES
1 *4303:X *446:12 8.465 
2 *446:12 *4307:A2 1.6 
3 *446:12 *4304:B 4.15 
*END

*D_NET *447 0.000303037
*CONN
*I *4305:B I *D sky130_fd_sc_hd__xnor2_2
*I *4304:Y O *D sky130_fd_sc_hd__nor2_2
*CAP
1 *4305:B 0.000142968
2 *4304:Y 0.000142968
3 *4305:B *4306:A0 0
4 *4307:A1 *4305:B 0
5 *261:55 *4305:B 1.71013e-05
*RES
1 *4304:Y *4305:B 9.54 
*END

*D_NET *448 0.000628613
*CONN
*I *4306:A0 I *D sky130_fd_sc_hd__mux2_1
*I *4305:Y O *D sky130_fd_sc_hd__xnor2_2
*CAP
1 *4306:A0 0.000164682
2 *4305:Y 0.000164682
3 *4306:A0 *4306:A1 4.89395e-05
4 *4305:B *4306:A0 0
5 *4474:S *4306:A0 0.000185069
6 *261:49 *4306:A0 4.02502e-05
7 *261:55 *4306:A0 2.49909e-05
*RES
1 *4305:Y *4306:A0 10.83 
*END

*D_NET *449 0.00252175
*CONN
*I *4357:A1 I *D sky130_fd_sc_hd__a21oi_2
*I *4355:A I *D sky130_fd_sc_hd__xnor2_2
*I *4307:Y O *D sky130_fd_sc_hd__o21bai_2
*CAP
1 *4357:A1 0
2 *4355:A 0.000239882
3 *4307:Y 0.000607905
4 *449:10 0.000847786
5 *4355:A *4354:B 0.000125279
6 *4355:A *4355:B 0.000162311
7 *4355:A *4357:A2 5.87261e-05
8 *4355:A *4390:A 0.000119115
9 *4304:A *449:10 8.35157e-05
10 *4307:B1_N *449:10 4.77769e-05
11 *401:10 *449:10 0.000181673
12 *446:12 *449:10 4.77807e-05
*RES
1 *4307:Y *449:10 14.25 
2 *449:10 *4355:A 9.615 
3 *449:10 *4357:A1 3.6 
*END

*D_NET *450 0.00219916
*CONN
*I *4350:B1 I *D sky130_fd_sc_hd__a21oi_2
*I *4358:A1 I *D sky130_fd_sc_hd__a21bo_2
*I *4349:A I *D sky130_fd_sc_hd__and3_2
*I *4308:X O *D sky130_fd_sc_hd__a31o_2
*CAP
1 *4350:B1 3.79428e-05
2 *4358:A1 0
3 *4349:A 0.000126082
4 *4308:X 0.000402356
5 *450:21 3.79428e-05
6 *450:8 0.000528437
7 *4349:A *4349:B 0.000139986
8 *4349:A *4349:C 0.000256776
9 *4349:A *490:10 2.14129e-05
10 *4350:B1 *4350:A1 0.000160635
11 *4350:B1 *4350:A2 0.0001249
12 *450:8 *4389:A 0
13 *450:8 *4696:A 0
14 *450:8 *4729:A 0.000114934
15 *450:8 *490:10 0.000137578
16 *4279:A *450:8 0
17 *4308:A3 *450:8 5.11148e-06
18 *422:10 *450:8 0.000105068
*RES
1 *4308:X *450:8 11.355 
2 *450:8 *4349:A 7.05 
3 *450:8 *450:21 2 
4 *450:21 *4358:A1 1.6 
5 *450:21 *4350:B1 3.085 
*END

*D_NET *451 0.00276364
*CONN
*I *4385:A1 I *D sky130_fd_sc_hd__a21o_2
*I *4321:A I *D sky130_fd_sc_hd__xor2_2
*I *4309:X O *D sky130_fd_sc_hd__a21bo_2
*CAP
1 *4385:A1 3.69588e-05
2 *4321:A 0.000174252
3 *4309:X 0.000447336
4 *451:8 0.000658546
5 *4321:A *4321:B 0.000344976
6 *4321:A *4387:A 0
7 *4321:A *4387:B 0.000327792
8 *4321:A *462:14 4.87939e-05
9 *4321:A *486:6 9.66021e-05
10 *4321:A *1012:38 2.69079e-05
11 *4385:A1 *4386:A3 4.66108e-05
12 *451:8 *4728:A 0
13 *451:8 *462:14 8.27307e-05
14 *451:8 *1012:38 0.000307256
15 *4344:B1 *4321:A 0.000164874
*RES
1 *4309:X *451:8 12.885 
2 *451:8 *4321:A 10.035 
3 *451:8 *4385:A1 4.05 
*END

*D_NET *452 0.00143043
*CONN
*I *4311:C1 I *D sky130_fd_sc_hd__a221o_2
*I *4310:X O *D sky130_fd_sc_hd__and4b_2
*CAP
1 *4311:C1 0.000413198
2 *4310:X 0.000413198
3 *4311:C1 *4311:B1 0.00028842
4 *4311:C1 *4316:B2 6.92161e-05
5 *4311:C1 *4616:D 0.000123751
6 *4311:C1 *4966:A 0
7 *4311:C1 *1023:43 0
8 *4311:C1 *1023:58 6.47919e-06
9 *4962:A *4311:C1 0.000116165
*RES
1 *4310:X *4311:C1 16.86 
*END

*D_NET *453 0.00145465
*CONN
*I *4316:B1 I *D sky130_fd_sc_hd__o22ai_2
*I *4311:X O *D sky130_fd_sc_hd__a221o_2
*CAP
1 *4316:B1 0.000330932
2 *4311:X 0.000330932
3 *4316:B1 *4311:B1 0.00029822
4 *4316:B1 *458:18 1.15383e-05
5 *4316:B1 *987:118 4.36694e-06
6 *4316:B1 *994:50 0
7 *4316:B1 *1110:12 0.000296081
8 *4316:B1 *1110:18 0.000141606
9 *4311:A2 *4316:B1 4.09723e-05
*RES
1 *4311:X *4316:B1 15.75 
*END

*D_NET *454 0.000441862
*CONN
*I *4315:B1 I *D sky130_fd_sc_hd__a2111o_2
*I *4312:X O *D sky130_fd_sc_hd__and4bb_2
*CAP
1 *4315:B1 0.000133976
2 *4312:X 0.000133976
3 *4315:B1 *4313:A_N 0.000155875
4 *4315:B1 *4313:C 0
5 *4315:B1 *614:10 9.50342e-06
6 *4315:B1 *1015:79 8.53113e-06
*RES
1 *4312:X *4315:B1 9.99 
*END

*D_NET *455 0.0001763
*CONN
*I *4315:C1 I *D sky130_fd_sc_hd__a2111o_2
*I *4313:X O *D sky130_fd_sc_hd__and4bb_2
*CAP
1 *4315:C1 8.81498e-05
2 *4313:X 8.81498e-05
3 *4315:C1 *4313:A_N 0
*RES
1 *4313:X *4315:C1 8.58 
*END

*D_NET *456 0.000945278
*CONN
*I *4315:D1 I *D sky130_fd_sc_hd__a2111o_2
*I *4314:X O *D sky130_fd_sc_hd__o211a_2
*CAP
1 *4315:D1 0.000254657
2 *4314:X 0.000254657
3 *4315:D1 *4313:C 9.5353e-05
4 *4315:D1 *4315:A2 0.000196052
5 *4315:D1 *4316:B2 8.41307e-05
6 *4315:D1 *1008:64 6.04287e-05
*RES
1 *4314:X *4315:D1 12.45 
*END

*D_NET *457 0.00291655
*CONN
*I *4316:B2 I *D sky130_fd_sc_hd__o22ai_2
*I *4315:X O *D sky130_fd_sc_hd__a2111o_2
*CAP
1 *4316:B2 0.000874285
2 *4315:X 0.000874285
3 *4316:B2 *4310:D 0.00012919
4 *4316:B2 *4315:A2 0.000150869
5 *4316:B2 *4316:A2 3.5678e-06
6 *4316:B2 *4600:RESET_B 0
7 *4316:B2 *4608:CLK 5.83121e-06
8 *4316:B2 *614:125 0.000198945
9 *4316:B2 *614:170 0.000493115
10 *4311:C1 *4316:B2 6.92161e-05
11 *4315:D1 *4316:B2 8.41307e-05
12 *4944:A *4316:B2 3.31103e-05
*RES
1 *4315:X *4316:B2 21.915 
*END

*D_NET *458 0.0187055
*CONN
*I *4317:B I *D sky130_fd_sc_hd__nor2_2
*I *4319:B1 I *D sky130_fd_sc_hd__o22a_2
*I *4316:Y O *D sky130_fd_sc_hd__o22ai_2
*CAP
1 *4317:B 0
2 *4319:B1 0.000222706
3 *4316:Y 0.00747885
4 *458:18 0.00770156
5 *4319:B1 *459:8 0.000121032
6 *4319:B1 *914:29 0.000130973
7 *458:18 *478:16 0.00278616
8 *458:18 *969:46 1.00941e-05
9 *458:18 *988:10 1.88656e-05
10 *458:18 *994:50 1.59562e-05
11 *4063:S *458:18 0.000125407
12 *4316:B1 *458:18 1.15383e-05
13 *289:49 *4319:B1 8.23188e-05
*RES
1 *4316:Y *458:18 23.8475 
2 *458:18 *4319:B1 5.875 
3 *458:18 *4317:B 1.6 
*END

*D_NET *459 0.00330914
*CONN
*I *4318:B I *D sky130_fd_sc_hd__nand2_2
*I *4372:A I *D sky130_fd_sc_hd__xnor2_2
*I *4320:A2 I *D sky130_fd_sc_hd__a21oi_2
*I *4317:Y O *D sky130_fd_sc_hd__nor2_2
*CAP
1 *4318:B 2.10806e-05
2 *4372:A 0.000210248
3 *4320:A2 0.000367888
4 *4317:Y 8.55935e-05
5 *459:8 0.000642648
6 *4320:A2 *4181:D 0.00030607
7 *4320:A2 *4320:B1 0.000123961
8 *4320:A2 *847:22 4.8854e-05
9 *4320:A2 *847:26 7.58382e-05
10 *4320:A2 *847:39 6.69392e-05
11 *4320:A2 *1005:74 0.00031036
12 *4372:A *4181:D 0.000590892
13 *4372:A *4338:B 8.97642e-05
14 *4372:A *4377:A 0
15 *4372:A *4377:B 3.84331e-05
16 *4372:A *847:39 2.14995e-05
17 *4372:A *914:12 0.000140266
18 *4372:A *936:16 0
19 *4319:B1 *459:8 0.000121032
20 *417:18 *4318:B 4.77769e-05
*RES
1 *4317:Y *459:8 4.74 
2 *459:8 *4320:A2 12.3825 
3 *459:8 *4372:A 10.59 
4 *4320:A2 *4318:B 3.65 
*END

*D_NET *460 0.00083627
*CONN
*I *4382:A I *D sky130_fd_sc_hd__xor2_2
*I *4318:Y O *D sky130_fd_sc_hd__nand2_2
*CAP
1 *4382:A 0.000100136
2 *4318:Y 0.000100136
3 *4382:A *4384:A 0.000134875
4 *4382:A *462:14 0.000271113
5 *333:10 *4382:A 7.33968e-05
6 *417:29 *4382:A 0.000156612
*RES
1 *4318:Y *4382:A 11.355 
*END

*D_NET *461 0.000870012
*CONN
*I *4320:B1 I *D sky130_fd_sc_hd__a21oi_2
*I *4319:X O *D sky130_fd_sc_hd__o22a_2
*CAP
1 *4320:B1 0.000356411
2 *4319:X 0.000356411
3 *4320:B1 *705:38 0
4 *4320:B1 *847:39 0
5 *4320:B1 *914:29 3.32275e-05
6 *4274:A *4320:B1 0
7 *4320:A2 *4320:B1 0.000123961
*RES
1 *4319:X *4320:B1 12.555 
*END

*D_NET *462 0.00357312
*CONN
*I *4385:A2 I *D sky130_fd_sc_hd__a21o_2
*I *4321:B I *D sky130_fd_sc_hd__xor2_2
*I *4320:Y O *D sky130_fd_sc_hd__a21oi_2
*CAP
1 *4385:A2 1.36534e-05
2 *4321:B 0.000160159
3 *4320:Y 0.000810756
4 *462:14 0.000984568
5 *4321:B *4385:B1 7.08331e-05
6 *4321:B *4387:A 0
7 *4321:B *4728:A 2.9424e-05
8 *4385:A2 *4386:A2 4.66108e-05
9 *4385:A2 *4386:A3 4.66108e-05
10 *462:14 *4383:B 5.21533e-05
11 *462:14 *4384:B 4.77807e-05
12 *462:14 *4728:A 4.50728e-05
13 *4321:A *4321:B 0.000344976
14 *4321:A *462:14 4.87939e-05
15 *4382:A *462:14 0.000271113
16 *417:18 *462:14 0.000234763
17 *417:29 *462:14 0.000283127
18 *451:8 *462:14 8.27307e-05
*RES
1 *4320:Y *462:14 16.5 
2 *462:14 *4321:B 6.185 
3 *462:14 *4385:A2 4.05 
*END

*D_NET *463 0.000433329
*CONN
*I *4322:C I *D sky130_fd_sc_hd__and3_2
*I *4323:B I *D sky130_fd_sc_hd__xnor2_2
*I *4321:X O *D sky130_fd_sc_hd__xor2_2
*CAP
1 *4322:C 3.58465e-05
2 *4323:B 6.18487e-05
3 *4321:X 2.60022e-05
4 *4322:C *4346:A2 3.09164e-05
5 *4322:C *4386:B1 4.76659e-05
6 *4322:C *485:10 0.000117832
7 *4323:B *486:6 8.57024e-05
8 *4344:B1 *4323:B 2.75145e-05
*RES
1 *4321:X *4323:B 3.995 
2 *4323:B *4322:C 8.58 
*END

*D_NET *464 0.0014791
*CONN
*I *4385:B1 I *D sky130_fd_sc_hd__a21o_2
*I *4322:X O *D sky130_fd_sc_hd__and3_2
*CAP
1 *4385:B1 0.000389584
2 *4322:X 0.000389584
3 *4385:B1 *4728:A 0.000132319
4 *4385:B1 *722:52 0.000496782
5 *4321:B *4385:B1 7.08331e-05
*RES
1 *4322:X *4385:B1 13.425 
*END

*D_NET *465 0.000588005
*CONN
*I *4345:A I *D sky130_fd_sc_hd__and3_2
*I *4346:B1 I *D sky130_fd_sc_hd__a21oi_2
*I *4323:Y O *D sky130_fd_sc_hd__xnor2_2
*CAP
1 *4345:A 5.81042e-06
2 *4346:B1 0.00010808
3 *4323:Y 0.000113891
4 *4345:A *4345:C 4.99619e-05
5 *4345:A *4386:B1 4.99619e-05
6 *4346:B1 *4345:B 8.65961e-05
7 *4346:B1 *4346:A2 8.71079e-05
8 *4346:B1 *4347:B 0
9 *4346:B1 *4386:B1 8.65961e-05
10 *4346:B1 *487:23 0
*RES
1 *4323:Y *4346:B1 9.885 
2 *4323:Y *4345:A 3.65 
*END

*D_NET *466 0.00159878
*CONN
*I *4329:B1 I *D sky130_fd_sc_hd__a21o_2
*I *4328:A I *D sky130_fd_sc_hd__nand3_2
*I *4324:Y O *D sky130_fd_sc_hd__nor2_2
*CAP
1 *4329:B1 3.33976e-05
2 *4328:A 0
3 *4324:Y 0.000184864
4 *466:12 0.000218262
5 *4329:B1 *4328:B 2.05056e-05
6 *4329:B1 *4329:A2 4.99619e-05
7 *4329:B1 *4376:A 5.05521e-05
8 *4329:B1 *470:6 0.000160641
9 *466:12 *5091:A 6.26996e-05
10 *466:12 *468:12 8.89019e-05
11 *466:12 *479:6 3.00381e-05
12 *466:12 *858:10 0.000385333
13 *466:12 *858:27 4.21973e-05
14 *4326:A *466:12 4.82919e-05
15 *4337:A *466:12 0.000127929
16 *333:10 *466:12 9.52078e-05
*RES
1 *4324:Y *466:12 11.99 
2 *466:12 *4328:A 1.6 
3 *466:12 *4329:B1 3.085 
*END

*D_NET *467 0.000662797
*CONN
*I *4379:A I *D sky130_fd_sc_hd__xnor2_2
*I *4325:X O *D sky130_fd_sc_hd__and2b_2
*CAP
1 *4379:A 0.000189433
2 *4325:X 0.000189433
3 *4379:A *4181:D 0
4 *4379:A *4379:B 0.000116158
5 *4239:B2 *4379:A 0
6 *4339:A2_N *4379:A 0
7 *5056:A *4379:A 8.30853e-06
8 *381:39 *4379:A 0.000159464
*RES
1 *4325:X *4379:A 10.32 
*END

*D_NET *468 0.00191222
*CONN
*I *4376:A I *D sky130_fd_sc_hd__nand2_2
*I *4329:A1 I *D sky130_fd_sc_hd__a21o_2
*I *4328:B I *D sky130_fd_sc_hd__nand3_2
*I *4326:X O *D sky130_fd_sc_hd__or4b_2
*CAP
1 *4376:A 0.000259311
2 *4329:A1 0
3 *4328:B 0.000149787
4 *4326:X 0.000206121
5 *468:12 0.000615219
6 *4328:B *4329:A2 0.000160635
7 *4328:B *4381:A 5.33085e-05
8 *4376:A *4376:B 4.83262e-05
9 *4376:A *4381:A 1.33293e-05
10 *4376:A *470:6 1.34503e-05
11 *468:12 *4728:A 0
12 *468:12 *5091:A 5.42739e-05
13 *468:12 *470:12 2.75707e-05
14 *4326:D_N *468:12 4.88555e-05
15 *4329:B1 *4328:B 2.05056e-05
16 *4329:B1 *4376:A 5.05521e-05
17 *4337:A *468:12 4.66108e-05
18 *333:10 *4328:B 5.16418e-05
19 *333:10 *468:12 0
20 *392:41 *4376:A 3.81908e-06
21 *466:12 *468:12 8.89019e-05
*RES
1 *4326:X *468:12 9.47 
2 *468:12 *4328:B 8.045 
3 *468:12 *4329:A1 1.6 
4 *468:12 *4376:A 5.08 
*END

*D_NET *469 0.00326754
*CONN
*I *4328:C I *D sky130_fd_sc_hd__nand3_2
*I *4329:A2 I *D sky130_fd_sc_hd__a21o_2
*I *4327:X O *D sky130_fd_sc_hd__a2bb2o_2
*CAP
1 *4328:C 0
2 *4329:A2 0.000149587
3 *4327:X 0.000796369
4 *469:12 0.000945955
5 *4329:A2 *4381:A 3.7445e-05
6 *4329:A2 *470:6 2.30292e-05
7 *469:12 *4339:B1 8.6013e-05
8 *469:12 *4340:B1 0.000167871
9 *469:12 *478:16 8.09325e-05
10 *4239:B2 *469:12 0.000183457
11 *4327:A2_N *469:12 4.66108e-05
12 *4328:B *4329:A2 0.000160635
13 *4329:B1 *4329:A2 4.99619e-05
14 *4339:A2_N *469:12 4.21973e-05
15 *5056:A *469:12 0.000212846
16 *296:39 *469:12 9.11723e-05
17 *297:19 *469:12 0.000124895
18 *360:44 *469:12 3.47668e-05
19 *392:31 *469:12 0
20 *392:41 *4329:A2 3.37941e-05
*RES
1 *4327:X *469:12 21.095 
2 *469:12 *4329:A2 4.825 
3 *469:12 *4328:C 1.6 
*END

*D_NET *470 0.00131407
*CONN
*I *4376:B I *D sky130_fd_sc_hd__nand2_2
*I *4342:A1 I *D sky130_fd_sc_hd__a21o_2
*I *4341:A I *D sky130_fd_sc_hd__nand3_2
*I *4328:Y O *D sky130_fd_sc_hd__nand3_2
*CAP
1 *4376:B 4.63431e-05
2 *4342:A1 0
3 *4341:A 1.43332e-05
4 *4328:Y 4.67501e-05
5 *470:12 0.000120917
6 *470:6 0.000199678
7 *4341:A *4341:B 4.99619e-05
8 *4341:A *4342:B1 5.30673e-05
9 *4341:A *471:12 3.66286e-05
10 *4376:B *4381:A 0.0001249
11 *470:6 *4381:A 0.00023468
12 *470:12 *4728:A 0
13 *470:12 *471:12 0.000113797
14 *4329:A2 *470:6 2.30292e-05
15 *4329:B1 *470:6 0.000160641
16 *4376:A *4376:B 4.83262e-05
17 *4376:A *470:6 1.34503e-05
18 *333:10 *470:12 0
19 *468:12 *470:12 2.75707e-05
*RES
1 *4328:Y *470:6 3.775 
2 *470:6 *470:12 6.145 
3 *470:12 *4341:A 2.395 
4 *470:12 *4342:A1 1.6 
5 *470:6 *4376:B 3.1 
*END

*D_NET *471 0.000715708
*CONN
*I *4342:A2 I *D sky130_fd_sc_hd__a21o_2
*I *4341:B I *D sky130_fd_sc_hd__nand3_2
*I *4329:X O *D sky130_fd_sc_hd__a21o_2
*CAP
1 *4342:A2 0
2 *4341:B 3.87019e-05
3 *4329:X 8.60215e-05
4 *471:12 0.000124723
5 *4341:B *4341:C 0
6 *4341:B *4342:B1 3.23663e-05
7 *471:12 *4342:B1 2.29156e-05
8 *471:12 *4728:A 0
9 *4341:A *4341:B 4.99619e-05
10 *4341:A *471:12 3.66286e-05
11 *430:27 *4341:B 0.00012657
12 *430:27 *471:12 8.40213e-05
13 *470:12 *471:12 0.000113797
*RES
1 *4329:X *471:12 7.775 
2 *471:12 *4341:B 3.1 
3 *471:12 *4342:A2 1.6 
*END

*D_NET *472 0.00030863
*CONN
*I *4331:C1 I *D sky130_fd_sc_hd__a221o_2
*I *4330:X O *D sky130_fd_sc_hd__and4b_2
*CAP
1 *4331:C1 9.93994e-05
2 *4330:X 9.93994e-05
3 *4331:C1 *4053:A0 6.22332e-05
4 *4331:C1 *4331:B1 4.75977e-05
*RES
1 *4330:X *4331:C1 9.03 
*END

*D_NET *473 0.00122503
*CONN
*I *4336:B1 I *D sky130_fd_sc_hd__o22ai_2
*I *4331:X O *D sky130_fd_sc_hd__a221o_2
*CAP
1 *4336:B1 0.000361608
2 *4331:X 0.000361608
3 *4268:A2 *4336:B1 3.13494e-05
4 *280:95 *4336:B1 0.000470461
*RES
1 *4331:X *4336:B1 11.165 
*END

*D_NET *474 0.000616988
*CONN
*I *4335:B1 I *D sky130_fd_sc_hd__a2111o_2
*I *4332:X O *D sky130_fd_sc_hd__and4bb_2
*CAP
1 *4335:B1 9.99053e-05
2 *4332:X 9.99053e-05
3 *4335:B1 *4333:C1 0.000169365
4 *4335:B1 *4334:D 4.66108e-05
5 *4335:B1 *4335:A2 2.85364e-05
6 *4335:B1 *1024:76 0.000109284
7 *4335:B1 *1024:87 4.82863e-05
8 *4335:B1 *1039:49 1.50951e-05
*RES
1 *4332:X *4335:B1 9.795 
*END

*D_NET *475 0.00112153
*CONN
*I *4335:C1 I *D sky130_fd_sc_hd__a2111o_2
*I *4333:X O *D sky130_fd_sc_hd__o211a_2
*CAP
1 *4335:C1 0.000183799
2 *4333:X 0.000183799
3 *4335:C1 *4333:A2 0.00011016
4 *4335:C1 *4333:B1 4.77769e-05
5 *4335:C1 *4335:D1 0.000269339
6 *4335:C1 *4867:A 4.77769e-05
7 *4335:C1 *1016:51 0.000268121
8 *4044:S *4335:C1 1.07593e-05
*RES
1 *4333:X *4335:C1 8.15 
*END

*D_NET *476 0.000882375
*CONN
*I *4335:D1 I *D sky130_fd_sc_hd__a2111o_2
*I *4334:X O *D sky130_fd_sc_hd__and4bb_2
*CAP
1 *4335:D1 0.000242962
2 *4334:X 0.000242962
3 *4335:D1 *4333:A1 3.84724e-05
4 *4335:D1 *4334:A_N 8.86398e-05
5 *4335:C1 *4335:D1 0.000269339
*RES
1 *4334:X *4335:D1 11.1 
*END

*D_NET *477 0.000809813
*CONN
*I *4336:B2 I *D sky130_fd_sc_hd__o22ai_2
*I *4335:X O *D sky130_fd_sc_hd__a2111o_2
*CAP
1 *4336:B2 0.000161603
2 *4335:X 0.000161603
3 *4044:S *4336:B2 4.77769e-05
4 *4496:D *4336:B2 0.000134756
5 *272:76 *4336:B2 0.000304075
*RES
1 *4335:X *4336:B2 11.325 
*END

*D_NET *478 0.0169389
*CONN
*I *4339:B1 I *D sky130_fd_sc_hd__o2bb2a_2
*I *4337:B I *D sky130_fd_sc_hd__nor2_2
*I *4336:Y O *D sky130_fd_sc_hd__o22ai_2
*CAP
1 *4339:B1 0.000110707
2 *4337:B 0
3 *4336:Y 0.00640098
4 *478:16 0.00651168
5 *4339:B1 *4340:A2 8.08153e-06
6 *478:16 *4173:B1 0.000184366
7 *478:16 *4335:A2 2.24574e-05
8 *478:16 *4340:A2 0.000100032
9 *478:16 *4340:B1 0
10 *478:16 *4381:A 0
11 *478:16 *4381:B 0.000170281
12 *478:16 *4384:A 0
13 *478:16 *705:38 0
14 *478:16 *988:31 0.000386571
15 *4239:B2 *4339:B1 4.82863e-05
16 *272:76 *478:16 4.23658e-05
17 *392:31 *4339:B1 0
18 *458:18 *478:16 0.00278616
19 *469:12 *4339:B1 8.6013e-05
20 *469:12 *478:16 8.09325e-05
*RES
1 *4336:Y *478:16 26.7809 
2 *478:16 *4337:B 3.6 
3 *478:16 *4339:B1 5.94 
*END

*D_NET *479 0.00305882
*CONN
*I *4340:A2 I *D sky130_fd_sc_hd__a21oi_2
*I *4372:B I *D sky130_fd_sc_hd__xnor2_2
*I *4338:B I *D sky130_fd_sc_hd__nand2_2
*I *4337:Y O *D sky130_fd_sc_hd__nor2_2
*CAP
1 *4340:A2 0.00011929
2 *4372:B 0
3 *4338:B 0.000159423
4 *4337:Y 1.55607e-05
5 *479:10 0.000338882
6 *479:6 0.00031431
7 *4340:A2 *4381:B 0.000117825
8 *4340:A2 *705:38 0.000126399
9 *479:6 *5091:A 8.65961e-05
10 *479:6 *858:10 9.80943e-06
11 *479:10 *4324:A 3.83345e-05
12 *479:10 *5091:A 0.000327752
13 *479:10 *858:10 3.74359e-05
14 *479:10 *891:26 0.000243092
15 *479:10 *891:45 0.000149072
16 *4287:A *479:10 8.23457e-05
17 *4338:A *4338:B 3.7837e-05
18 *4339:A2_N *479:10 4.89295e-05
19 *4339:B1 *4340:A2 8.08153e-06
20 *4372:A *4338:B 8.97642e-05
21 *5059:A *4338:B 7.78207e-05
22 *392:31 *4340:A2 3.09164e-05
23 *392:41 *4340:A2 0.000139245
24 *429:40 *479:10 0.00033003
25 *466:12 *479:6 3.00381e-05
26 *478:16 *4340:A2 0.000100032
*RES
1 *4337:Y *479:6 2.395 
2 *479:6 *479:10 7.02 
3 *479:10 *4338:B 9.005 
4 *479:10 *4372:B 1.6 
5 *479:6 *4340:A2 10.04 
*END

*D_NET *480 0.0012529
*CONN
*I *4371:S I *D sky130_fd_sc_hd__mux2_1
*I *4338:Y O *D sky130_fd_sc_hd__nand2_2
*CAP
1 *4371:S 0.000307085
2 *4338:Y 0.000307085
3 *4371:S *4374:B 4.82919e-05
4 *4371:S *988:10 0.000139245
5 *5059:A *4371:S 0.000154981
6 *305:16 *4371:S 0.000137578
7 *429:40 *4371:S 0.000158639
*RES
1 *4338:Y *4371:S 13.545 
*END

*D_NET *481 0.00124153
*CONN
*I *4340:B1 I *D sky130_fd_sc_hd__a21oi_2
*I *4339:X O *D sky130_fd_sc_hd__o2bb2a_2
*CAP
1 *4340:B1 0.000258047
2 *4339:X 0.000258047
3 *4340:B1 *4381:A 0.00020613
4 *4340:B1 *482:6 8.8266e-05
5 *4239:B2 *4340:B1 4.66108e-05
6 *333:10 *4340:B1 5.22283e-05
7 *360:44 *4340:B1 0.00011379
8 *430:27 *4340:B1 5.05437e-05
9 *469:12 *4340:B1 0.000167871
10 *478:16 *4340:B1 0
*RES
1 *4339:X *4340:B1 13.905 
*END

*D_NET *482 0.00109541
*CONN
*I *4341:C I *D sky130_fd_sc_hd__nand3_2
*I *4342:B1 I *D sky130_fd_sc_hd__a21o_2
*I *4340:Y O *D sky130_fd_sc_hd__a21oi_2
*CAP
1 *4341:C 2.08101e-05
2 *4342:B1 0.000275181
3 *4340:Y 3.64194e-05
4 *482:6 0.00033241
5 *482:6 *4384:A 0.000124895
6 *4294:B1 *4342:B1 0
7 *4340:A1 *4341:C 0
8 *4340:B1 *482:6 8.8266e-05
9 *4341:A *4342:B1 5.30673e-05
10 *4341:B *4341:C 0
11 *4341:B *4342:B1 3.23663e-05
12 *430:27 *4342:B1 7.94451e-05
13 *430:27 *482:6 2.96334e-05
14 *471:12 *4342:B1 2.29156e-05
*RES
1 *4340:Y *482:6 3.085 
2 *482:6 *4342:B1 6.58 
3 *482:6 *4341:C 1.96 
*END

*D_NET *483 0.00413771
*CONN
*I *4386:A2 I *D sky130_fd_sc_hd__a31o_2
*I *4343:B I *D sky130_fd_sc_hd__nand3_2
*I *4344:A1 I *D sky130_fd_sc_hd__a21o_2
*I *4382:B I *D sky130_fd_sc_hd__xor2_2
*I *4341:Y O *D sky130_fd_sc_hd__nand3_2
*CAP
1 *4386:A2 0.000278973
2 *4343:B 0.000144301
3 *4344:A1 0.000116885
4 *4382:B 0.000278973
5 *4341:Y 0.000388104
6 *483:17 0.000402058
7 *483:8 0.000528976
8 *4343:B *4343:C 0.00015896
9 *4343:B *4344:A2 0.000120655
10 *4343:B *4388:A 3.59784e-05
11 *4343:B *4728:A 6.52265e-05
12 *4343:B *722:52 0.000489974
13 *4344:A1 *4344:A2 3.99039e-05
14 *4344:A1 *4384:A 0
15 *4344:A1 *4384:B 1.70935e-05
16 *4344:A1 *4728:A 9.54399e-05
17 *4344:A1 *486:6 8.8266e-05
18 *4386:A2 *4386:A3 0.000142982
19 *4386:A2 *1012:38 0.000408211
20 *483:8 *4383:A 0.00011669
21 *483:8 *4383:B 7.33283e-05
22 *483:8 *4384:B 5.36975e-06
23 *483:8 *484:8 0
24 *483:17 *4384:A 0
25 *483:17 *4384:B 9.47524e-05
26 *4385:A2 *4386:A2 4.66108e-05
27 *333:10 *483:8 0
*RES
1 *4341:Y *483:8 11.1 
2 *483:8 *4382:B 2 
3 *483:8 *483:17 2.595 
4 *483:17 *4344:A1 6.03 
5 *483:17 *4343:B 8.55 
6 *4382:B *4386:A2 8.0575 
*END

*D_NET *484 0.00322711
*CONN
*I *4386:A3 I *D sky130_fd_sc_hd__a31o_2
*I *4343:C I *D sky130_fd_sc_hd__nand3_2
*I *4344:A2 I *D sky130_fd_sc_hd__a21o_2
*I *4342:X O *D sky130_fd_sc_hd__a21o_2
*CAP
1 *4386:A3 0.000161729
2 *4343:C 3.29115e-05
3 *4344:A2 0.000102548
4 *4342:X 0.000306275
5 *484:12 0.000228215
6 *484:8 0.000560759
7 *4343:C *4388:A 6.6564e-05
8 *4343:C *4728:A 3.66286e-05
9 *4344:A2 *4384:B 9.50342e-06
10 *4344:A2 *4387:A 8.71001e-05
11 *4344:A2 *4728:A 0.000122337
12 *484:8 *4728:A 0.000608268
13 *484:12 *4387:A 0.000132908
14 *484:12 *4728:A 0.000215639
15 *4343:B *4343:C 0.00015896
16 *4343:B *4344:A2 0.000120655
17 *4344:A1 *4344:A2 3.99039e-05
18 *4385:A1 *4386:A3 4.66108e-05
19 *4385:A2 *4386:A3 4.66108e-05
20 *4386:A2 *4386:A3 0.000142982
21 *483:8 *484:8 0
*RES
1 *4342:X *484:8 10.845 
2 *484:8 *484:12 4.655 
3 *484:12 *4344:A2 8.63 
4 *484:12 *4343:C 3.085 
5 *484:8 *4386:A3 6.465 
*END

*D_NET *485 0.00174374
*CONN
*I *4345:B I *D sky130_fd_sc_hd__and3_2
*I *4346:A1 I *D sky130_fd_sc_hd__a21oi_2
*I *4343:Y O *D sky130_fd_sc_hd__nand3_2
*CAP
1 *4345:B 0.000243273
2 *4346:A1 0.000122081
3 *4343:Y 0.000189704
4 *485:10 0.000555058
5 *4345:B *4345:C 7.68414e-06
6 *4345:B *4386:B1 0.0001138
7 *4345:B *486:6 3.1835e-05
8 *4346:A1 *4346:A2 8.71079e-05
9 *4346:A1 *4388:A 0
10 *485:10 *4346:A2 1.34361e-05
11 *485:10 *4386:B1 8.08153e-06
12 *485:10 *722:52 9.09288e-05
13 *4322:C *485:10 0.000117832
14 *4323:A *485:10 7.63204e-05
15 *4344:B1 *4346:A1 0
16 *4344:B1 *485:10 0
17 *4346:B1 *4345:B 8.65961e-05
*RES
1 *4343:Y *485:10 7.665 
2 *485:10 *4346:A1 5.745 
3 *485:10 *4345:B 7.875 
*END

*D_NET *486 0.00293666
*CONN
*I *4345:C I *D sky130_fd_sc_hd__and3_2
*I *4346:A2 I *D sky130_fd_sc_hd__a21oi_2
*I *4344:X O *D sky130_fd_sc_hd__a21o_2
*CAP
1 *4345:C 0.000230272
2 *4346:A2 0.000142778
3 *4344:X 0.000529862
4 *486:6 0.000902912
5 *4345:C *4386:B1 0.00013566
6 *4346:A2 *4386:B1 3.09164e-05
7 *4346:A2 *617:12 0.000160635
8 *486:6 *4728:A 4.82863e-05
9 *4321:A *486:6 9.66021e-05
10 *4322:C *4346:A2 3.09164e-05
11 *4323:B *486:6 8.57024e-05
12 *4344:A1 *486:6 8.8266e-05
13 *4344:B1 *486:6 0.00017672
14 *4345:A *4345:C 4.99619e-05
15 *4345:B *4345:C 7.68414e-06
16 *4345:B *486:6 3.1835e-05
17 *4346:A1 *4346:A2 8.71079e-05
18 *4346:B1 *4346:A2 8.71079e-05
19 *485:10 *4346:A2 1.34361e-05
*RES
1 *4344:X *486:6 10.675 
2 *486:6 *4346:A2 9.485 
3 *486:6 *4345:C 4.825 
*END

*D_NET *487 0.00280143
*CONN
*I *4348:A1 I *D sky130_fd_sc_hd__o21ai_2
*I *4347:B I *D sky130_fd_sc_hd__or3_2
*I *4386:B1 I *D sky130_fd_sc_hd__a31o_2
*I *4345:X O *D sky130_fd_sc_hd__and3_2
*CAP
1 *4348:A1 1.41735e-05
2 *4347:B 0.000311943
3 *4386:B1 0.000452345
4 *4345:X 0
5 *487:23 0.000469156
6 *487:4 0.000595385
7 *4347:B *4347:C 0
8 *4347:B *4389:B 2.05498e-05
9 *4348:A1 *488:6 8.65961e-05
10 *4348:A1 *617:12 8.65961e-05
11 *4322:B *4386:B1 0.000135382
12 *4322:C *4386:B1 4.76659e-05
13 *4323:A *4386:B1 0
14 *4345:A *4386:B1 4.99619e-05
15 *4345:B *4386:B1 0.0001138
16 *4345:C *4386:B1 0.00013566
17 *4346:A2 *4386:B1 3.09164e-05
18 *4346:B1 *4347:B 0
19 *4346:B1 *4386:B1 8.65961e-05
20 *4346:B1 *487:23 0
21 *436:16 *4386:B1 0.000156622
22 *439:10 *487:23 0
23 *485:10 *4386:B1 8.08153e-06
*RES
1 *4345:X *487:4 1.6 
2 *487:4 *4386:B1 15.86 
3 *487:4 *487:23 4.145 
4 *487:23 *4347:B 7.995 
5 *487:23 *4348:A1 4.395 
*END

*D_NET *488 0.0010494
*CONN
*I *4348:A2 I *D sky130_fd_sc_hd__o21ai_2
*I *4347:C I *D sky130_fd_sc_hd__or3_2
*I *4346:Y O *D sky130_fd_sc_hd__a21oi_2
*CAP
1 *4348:A2 0
2 *4347:C 0.000121037
3 *4346:Y 0.000224126
4 *488:6 0.000345163
5 *488:6 *617:12 0.000272481
6 *4347:A *4347:C 0
7 *4347:B *4347:C 0
8 *4348:A1 *488:6 8.65961e-05
*RES
1 *4346:Y *488:6 6.535 
2 *488:6 *4347:C 7.49 
3 *488:6 *4348:A2 1.6 
*END

*D_NET *489 0.00186672
*CONN
*I *4350:A1 I *D sky130_fd_sc_hd__a21oi_2
*I *4349:B I *D sky130_fd_sc_hd__and3_2
*I *4358:B1_N I *D sky130_fd_sc_hd__a21bo_2
*I *4347:X O *D sky130_fd_sc_hd__or3_2
*CAP
1 *4350:A1 0.000219252
2 *4349:B 0.000227938
3 *4358:B1_N 1.56593e-05
4 *4347:X 0.000161151
5 *489:19 0.000517183
6 *489:8 0.000246804
7 *4349:B *4349:C 1.0124e-05
8 *4350:A1 *4350:A2 9.21168e-05
9 *4350:A1 *4351:B 1.56632e-05
10 *489:8 *4389:B 4.85494e-05
11 *4347:A *489:8 1.16578e-05
12 *4349:A *4349:B 0.000139986
13 *4350:B1 *4350:A1 0.000160635
*RES
1 *4347:X *489:8 4.48 
2 *489:8 *4358:B1_N 2.06875 
3 *489:8 *489:19 1.14 
4 *489:19 *4349:B 8.81 
5 *489:19 *4350:A1 5.785 
*END

*D_NET *490 0.00231129
*CONN
*I *4350:A2 I *D sky130_fd_sc_hd__a21oi_2
*I *4358:A2 I *D sky130_fd_sc_hd__a21bo_2
*I *4349:C I *D sky130_fd_sc_hd__and3_2
*I *4348:Y O *D sky130_fd_sc_hd__o21ai_2
*CAP
1 *4350:A2 0.000142154
2 *4358:A2 0
3 *4349:C 0.000209809
4 *4348:Y 0.000368124
5 *490:23 0.000142154
6 *490:10 0.000577933
7 *4350:A2 *4351:B 3.23663e-05
8 *490:10 *617:12 0.000195839
9 *4349:A *4349:C 0.000256776
10 *4349:A *490:10 2.14129e-05
11 *4349:B *4349:C 1.0124e-05
12 *4350:A1 *4350:A2 9.21168e-05
13 *4350:B1 *4350:A2 0.0001249
14 *450:8 *490:10 0.000137578
*RES
1 *4348:Y *490:10 10.08 
2 *490:10 *4349:C 7.395 
3 *490:10 *490:23 2 
4 *490:23 *4358:A2 1.6 
5 *490:23 *4350:A2 4.81 
*END

*D_NET *491 0.000702416
*CONN
*I *4351:A I *D sky130_fd_sc_hd__or2_2
*I *4349:X O *D sky130_fd_sc_hd__and3_2
*CAP
1 *4351:A 0.000324206
2 *4349:X 0.000324206
3 *4351:A *722:42 5.4003e-05
*RES
1 *4349:X *4351:A 11.355 
*END

*D_NET *492 0.000264069
*CONN
*I *4351:B I *D sky130_fd_sc_hd__or2_2
*I *4350:Y O *D sky130_fd_sc_hd__a21oi_2
*CAP
1 *4351:B 0.00010802
2 *4350:Y 0.00010802
3 *4350:A1 *4351:B 1.56632e-05
4 *4350:A2 *4351:B 3.23663e-05
*RES
1 *4350:Y *4351:B 4.7 
*END

*D_NET *493 0.00183391
*CONN
*I *4353:C I *D sky130_fd_sc_hd__nand3_2
*I *4352:B1 I *D sky130_fd_sc_hd__a21oi_2
*I *4351:X O *D sky130_fd_sc_hd__or2_2
*CAP
1 *4353:C 0.000161262
2 *4352:B1 0
3 *4351:X 0.00046291
4 *493:10 0.000624172
5 *4353:C *495:8 0.000163199
6 *493:10 *4354:A_N 0
7 *493:10 *4357:B1 0
8 *493:10 *722:42 8.5841e-05
9 *4300:A_N *4353:C 0
10 *4300:A_N *493:10 0
11 *4300:B *4353:C 0
12 *4352:A2 *4353:C 0.000310806
13 *441:12 *4353:C 0
14 *441:12 *493:10 0
15 *443:8 *4353:C 2.57174e-05
*RES
1 *4351:X *493:10 11.145 
2 *493:10 *4352:B1 3.6 
3 *493:10 *4353:C 7.695 
*END

*D_NET *494 0.00238532
*CONN
*I *4357:B1 I *D sky130_fd_sc_hd__a21oi_2
*I *4354:A_N I *D sky130_fd_sc_hd__nand2b_2
*I *4352:Y O *D sky130_fd_sc_hd__a21oi_2
*CAP
1 *4357:B1 8.02489e-05
2 *4354:A_N 0.000276416
3 *4352:Y 0.000280522
4 *494:8 0.000637187
5 *4354:A_N *4354:B 0
6 *4354:A_N *4355:B 5.50989e-05
7 *4354:A_N *4390:A 0.00031916
8 *4354:A_N *722:42 3.00381e-05
9 *4357:B1 *4390:A 0.000198312
10 *4300:A_N *4357:B1 2.60908e-05
11 *4300:B *4357:B1 0.000135231
12 *4352:A2 *494:8 5.98073e-05
13 *4353:A *494:8 0.000162311
14 *443:8 *494:8 0.000124895
15 *493:10 *4354:A_N 0
16 *493:10 *4357:B1 0
*RES
1 *4352:Y *494:8 7.5 
2 *494:8 *4354:A_N 9.51 
3 *494:8 *4357:B1 6.255 
*END

*D_NET *495 0.00214144
*CONN
*I *4357:A2 I *D sky130_fd_sc_hd__a21oi_2
*I *4354:B I *D sky130_fd_sc_hd__nand2b_2
*I *4353:Y O *D sky130_fd_sc_hd__nand3_2
*CAP
1 *4357:A2 6.33454e-05
2 *4354:B 0.000325342
3 *4353:Y 0.000322898
4 *495:8 0.000711586
5 *4354:B *4355:B 0.000129687
6 *4354:B *4390:A 0
7 *4354:B *4391:A0 0
8 *4300:B *495:8 0.000232111
9 *4353:C *495:8 0.000163199
10 *4354:A_N *4354:B 0
11 *4355:A *4354:B 0.000125279
12 *4355:A *4357:A2 5.87261e-05
13 *443:8 *495:8 9.27255e-06
*RES
1 *4353:Y *495:8 7.845 
2 *495:8 *4354:B 10.335 
3 *495:8 *4357:A2 4.98 
*END

*D_NET *496 0.000858541
*CONN
*I *4355:B I *D sky130_fd_sc_hd__xnor2_2
*I *4354:Y O *D sky130_fd_sc_hd__nand2b_2
*CAP
1 *4355:B 0.000203188
2 *4354:Y 0.000203188
3 *4355:B *4390:A 0.000105068
4 *4354:A_N *4355:B 5.50989e-05
5 *4354:B *4355:B 0.000129687
6 *4355:A *4355:B 0.000162311
*RES
1 *4354:Y *4355:B 12.705 
*END

*D_NET *497 0.000865426
*CONN
*I *4356:A0 I *D sky130_fd_sc_hd__mux2_1
*I *4355:Y O *D sky130_fd_sc_hd__xnor2_2
*CAP
1 *4356:A0 0.000272209
2 *4355:Y 0.000272209
3 *4356:A0 *617:68 9.24127e-05
4 *4356:A0 *722:42 0.000102024
5 *4624:D *4356:A0 0.00012657
6 *4625:D *4356:A0 0
*RES
1 *4355:Y *4356:A0 13.05 
*END

*D_NET *498 0.00107911
*CONN
*I *4390:A I *D sky130_fd_sc_hd__xnor2_2
*I *4357:Y O *D sky130_fd_sc_hd__a21oi_2
*CAP
1 *4390:A 0.000168728
2 *4357:Y 0.000168728
3 *4354:A_N *4390:A 0.00031916
4 *4354:B *4390:A 0
5 *4355:A *4390:A 0.000119115
6 *4355:B *4390:A 0.000105068
7 *4357:B1 *4390:A 0.000198312
*RES
1 *4357:Y *4390:A 13.17 
*END

*D_NET *499 0.000188407
*CONN
*I *4389:A I *D sky130_fd_sc_hd__xnor2_2
*I *4358:X O *D sky130_fd_sc_hd__a21bo_2
*CAP
1 *4389:A 7.21588e-05
2 *4358:X 7.21588e-05
3 *4389:A *4389:B 4.40899e-05
4 *450:8 *4389:A 0
*RES
1 *4358:X *4389:A 8.58 
*END

*D_NET *500 0.000500331
*CONN
*I *4362:B1 I *D sky130_fd_sc_hd__a221o_2
*I *4359:X O *D sky130_fd_sc_hd__or2_2
*CAP
1 *4362:B1 8.6716e-05
2 *4359:X 8.6716e-05
3 *4362:B1 *4111:A0 2.82121e-05
4 *4362:B1 *4111:S 4.31921e-05
5 *4362:B1 *4365:B1 8.56542e-05
6 *4362:B1 *4374:A 8.49205e-05
7 *4362:B1 *891:26 8.49205e-05
*RES
1 *4359:X *4362:B1 9.885 
*END

*D_NET *501 0.00101697
*CONN
*I *4361:C1 I *D sky130_fd_sc_hd__a221o_2
*I *4360:X O *D sky130_fd_sc_hd__a22o_2
*CAP
1 *4361:C1 0.000257988
2 *4360:X 0.000257988
3 *4361:C1 *4982:A 0.000154762
4 *4361:C1 *618:134 6.58423e-05
5 *4361:C1 *722:77 3.1562e-06
6 *4361:C1 *985:24 0.000277233
*RES
1 *4360:X *4361:C1 12.105 
*END

*D_NET *502 0.00151151
*CONN
*I *4362:C1 I *D sky130_fd_sc_hd__a221o_2
*I *4361:X O *D sky130_fd_sc_hd__a221o_2
*CAP
1 *4362:C1 0.000366304
2 *4361:X 0.000366304
3 *4362:C1 *4111:A1 0.000202148
4 *4362:C1 *4111:S 0.000116147
5 *4362:C1 *4360:A2 7.03219e-05
6 *4362:C1 *4362:A1 9.54469e-05
7 *4362:C1 *4365:B1 0.000263572
8 *4362:B2 *4362:C1 3.12639e-05
*RES
1 *4361:X *4362:C1 15.945 
*END

*D_NET *503 0.00318226
*CONN
*I *4363:B1 I *D sky130_fd_sc_hd__a21oi_2
*I *4362:X O *D sky130_fd_sc_hd__a221o_2
*CAP
1 *4363:B1 0.000762028
2 *4362:X 0.000762028
3 *4363:B1 *4119:A0 0.00023635
4 *4363:B1 *4183:A1 0.00101698
5 *4363:B1 *4363:A1 6.60257e-06
6 *4363:B1 *4497:RESET_B 9.62187e-05
7 *4363:B1 *4593:RESET_B 1.19028e-05
8 *4363:B1 *4617:D 8.65905e-05
9 *4363:B1 *4697:A 0.000174125
10 *4362:A2 *4363:B1 2.49909e-05
11 *4593:D *4363:B1 4.43871e-06
12 *4979:A *4363:B1 0
*RES
1 *4362:X *4363:B1 26.5 
*END

*D_NET *504 0.00252964
*CONN
*I *4364:C1 I *D sky130_fd_sc_hd__a211o_2
*I *4363:Y O *D sky130_fd_sc_hd__a21oi_2
*CAP
1 *4364:C1 0.000363921
2 *4363:Y 0.000363921
3 *4364:C1 *4127:A1 0.000280049
4 *4364:C1 *4363:A1 0.000611714
5 *4364:C1 *4601:RESET_B 3.46656e-05
6 *4364:C1 *4697:A 0.000125088
7 *4364:C1 *4978:A 0.000247293
8 *4365:C1 *4364:C1 0.000122337
9 *280:51 *4364:C1 0.000258312
10 *289:20 *4364:C1 0.000122337
*RES
1 *4363:Y *4364:C1 20.175 
*END

*D_NET *505 0.00269711
*CONN
*I *4373:A I *D sky130_fd_sc_hd__xnor2_2
*I *4364:X O *D sky130_fd_sc_hd__a211o_2
*CAP
1 *4373:A 0.00055944
2 *4364:X 0.00055944
3 *4373:A *4183:C1 0.000633927
4 *4373:A *702:28 0.000635587
5 *381:24 *4373:A 0.000308713
*RES
1 *4364:X *4373:A 19.74 
*END

*D_NET *506 0.0016544
*CONN
*I *4366:C1 I *D sky130_fd_sc_hd__a221o_2
*I *4365:X O *D sky130_fd_sc_hd__a221o_2
*CAP
1 *4366:C1 0.000701349
2 *4365:X 0.000701349
3 *4366:C1 *4374:A 2.40712e-05
4 *4366:C1 *4521:CLK 6.96579e-05
5 *4366:C1 *4521:RESET_B 4.70393e-05
6 *4366:C1 *891:26 7.22739e-05
7 *4362:B2 *4366:C1 3.86607e-05
*RES
1 *4365:X *4366:C1 16.035 
*END

*D_NET *507 0.00174715
*CONN
*I *4369:B1 I *D sky130_fd_sc_hd__o221a_2
*I *4366:X O *D sky130_fd_sc_hd__a221o_2
*CAP
1 *4369:B1 0.000392685
2 *4366:X 0.000392685
3 *4369:B1 *4366:B2 0
4 *4369:B1 *4369:A2 0.000269952
5 *4369:B1 *4369:B2 4.82919e-05
6 *4369:B1 *4374:A 4.94565e-05
7 *4369:B1 *4521:CLK 0.000420168
8 *4369:B1 *693:10 0.000157595
9 *4369:B1 *947:34 1.63135e-05
*RES
1 *4366:X *4369:B1 15.7837 
*END

*D_NET *508 0.00135857
*CONN
*I *4368:B1 I *D sky130_fd_sc_hd__a21o_2
*I *4367:X O *D sky130_fd_sc_hd__a22o_2
*CAP
1 *4368:B1 0.000497512
2 *4367:X 0.000497512
3 *4368:B1 *4016:A0 1.08105e-05
4 *4368:B1 *4074:A1 8.35157e-05
5 *4368:B1 *4367:A1 1.79098e-05
6 *4368:B1 *4505:RESET_B 0
7 *4368:B1 *1049:23 0.000175721
8 *4368:B1 *1058:12 7.5589e-05
*RES
1 *4367:X *4368:B1 15.795 
*END

*D_NET *509 0.000706513
*CONN
*I *4369:B2 I *D sky130_fd_sc_hd__o221a_2
*I *4368:X O *D sky130_fd_sc_hd__a21o_2
*CAP
1 *4369:B2 0.000249919
2 *4368:X 0.000249919
3 *4369:B2 *4368:A1 2.88357e-05
4 *4369:B2 *4505:RESET_B 0
5 *4369:B2 *4938:A 5.4256e-05
6 *4369:B2 *947:34 2.75145e-05
7 *4369:B1 *4369:B2 4.82919e-05
8 *280:77 *4369:B2 4.77769e-05
*RES
1 *4368:X *4369:B2 11.88 
*END

*D_NET *510 0.00714664
*CONN
*I *4374:A I *D sky130_fd_sc_hd__xnor2_2
*I *4369:X O *D sky130_fd_sc_hd__o221a_2
*CAP
1 *4374:A 0.002421
2 *4369:X 0.002421
3 *4374:A *3998:A1 0
4 *4374:A *4119:A1 4.35348e-05
5 *4374:A *4369:A1 2.75145e-05
6 *4374:A *4369:A2 0
7 *4374:A *4617:CLK 0.000318091
8 *4374:A *4617:RESET_B 2.20753e-05
9 *4374:A *891:26 0.000568705
10 *4374:A *947:34 1.5815e-05
11 *4374:A *998:18 0.000211757
12 *4374:A *1119:6 2.0514e-05
13 *4362:B1 *4374:A 8.49205e-05
14 *4366:C1 *4374:A 2.40712e-05
15 *4369:B1 *4374:A 4.94565e-05
16 *4369:C1 *4374:A 3.00381e-05
17 *4497:D *4374:A 9.14049e-05
18 *4601:D *4374:A 0.000116151
19 *289:37 *4374:A 0.000680601
*RES
1 *4369:X *4374:A 48.25 
*END

*D_NET *511 0.000317981
*CONN
*I *4371:A1 I *D sky130_fd_sc_hd__mux2_1
*I *4370:Y O *D sky130_fd_sc_hd__nand2_2
*CAP
1 *4371:A1 6.33258e-05
2 *4370:Y 6.33258e-05
3 *4371:A1 *969:46 0
4 *4327:B2 *4371:A1 4.82919e-05
5 *296:39 *4371:A1 4.82919e-05
6 *332:19 *4371:A1 9.47454e-05
*RES
1 *4370:Y *4371:A1 8.775 
*END

*D_NET *512 0.000442752
*CONN
*I *4373:B I *D sky130_fd_sc_hd__xnor2_2
*I *4371:X O *D sky130_fd_sc_hd__mux2_1
*CAP
1 *4373:B 0.000208025
2 *4371:X 0.000208025
3 *4373:B *4964:A 2.67022e-05
4 *4373:B *983:20 0
5 *332:8 *4373:B 0
*RES
1 *4371:X *4373:B 10.62 
*END

*D_NET *513 0.000437282
*CONN
*I *4374:B I *D sky130_fd_sc_hd__xnor2_2
*I *4372:Y O *D sky130_fd_sc_hd__xnor2_2
*CAP
1 *4374:B 0.000136364
2 *4372:Y 0.000136364
3 *4374:B *969:46 6.79688e-05
4 *4371:S *4374:B 4.82919e-05
5 *332:8 *4374:B 0
6 *429:40 *4374:B 4.82919e-05
*RES
1 *4372:Y *4374:B 9.795 
*END

*D_NET *514 0.00019703
*CONN
*I *4375:A I *D sky130_fd_sc_hd__xnor2_2
*I *4373:Y O *D sky130_fd_sc_hd__xnor2_2
*CAP
1 *4375:A 9.8515e-05
2 *4373:Y 9.8515e-05
*RES
1 *4373:Y *4375:A 4.685 
*END

*D_NET *515 0.000367602
*CONN
*I *4375:B I *D sky130_fd_sc_hd__xnor2_2
*I *4374:Y O *D sky130_fd_sc_hd__xnor2_2
*CAP
1 *4375:B 6.44444e-05
2 *4374:Y 6.44444e-05
3 *4375:B *969:46 0.000120186
4 *289:49 *4375:B 0.000118527
*RES
1 *4374:Y *4375:B 9.03 
*END

*D_NET *516 0.00345526
*CONN
*I *4384:A I *D sky130_fd_sc_hd__xnor2_2
*I *4375:Y O *D sky130_fd_sc_hd__xnor2_2
*CAP
1 *4384:A 0.00115382
2 *4375:Y 0.00115382
3 *4384:A *4377:A 1.77595e-05
4 *4384:A *4377:B 7.27003e-05
5 *4384:A *4380:A 8.08129e-05
6 *4384:A *4381:A 0.000160323
7 *4384:A *705:38 0
8 *4384:A *722:52 0.00011964
9 *4384:A *914:12 0.000120731
10 *4344:A1 *4384:A 0
11 *4382:A *4384:A 0.000134875
12 *5093:A *4384:A 2.68464e-05
13 *333:10 *4384:A 0.00014804
14 *430:16 *4384:A 0.000109653
15 *430:27 *4384:A 3.13457e-05
16 *478:16 *4384:A 0
17 *482:6 *4384:A 0.000124895
18 *483:17 *4384:A 0
*RES
1 *4375:Y *4384:A 29.205 
*END

*D_NET *517 0.00228893
*CONN
*I *4381:A I *D sky130_fd_sc_hd__xnor2_2
*I *4376:Y O *D sky130_fd_sc_hd__nand2_2
*CAP
1 *4381:A 0.000289218
2 *4376:Y 0.000289218
3 *4381:A *914:29 0.000122202
4 *4381:A *936:16 6.81824e-05
5 *4328:B *4381:A 5.33085e-05
6 *4329:A2 *4381:A 3.7445e-05
7 *4340:B1 *4381:A 0.00020613
8 *4376:A *4381:A 1.33293e-05
9 *4376:B *4381:A 0.0001249
10 *4384:A *4381:A 0.000160323
11 *333:10 *4381:A 0.000189746
12 *392:41 *4381:A 0.000500251
13 *470:6 *4381:A 0.00023468
14 *478:16 *4381:A 0
*RES
1 *4376:Y *4381:A 17.625 
*END

*D_NET *518 0.000586501
*CONN
*I *4380:A I *D sky130_fd_sc_hd__xnor2_2
*I *4377:X O *D sky130_fd_sc_hd__or2_2
*CAP
1 *4380:A 0.000153933
2 *4377:X 0.000153933
3 *4380:A *936:16 0
4 *4384:A *4380:A 8.08129e-05
5 *430:10 *4380:A 0
6 *430:16 *4380:A 0.000197822
*RES
1 *4377:X *4380:A 10.665 
*END

*D_NET *519 0.000417711
*CONN
*I *4379:B I *D sky130_fd_sc_hd__xnor2_2
*I *4378:Y O *D sky130_fd_sc_hd__nor2_2
*CAP
1 *4379:B 0.000150776
2 *4378:Y 0.000150776
3 *4379:B *4181:D 0
4 *4379:B *705:38 0
5 *4239:B2 *4379:B 0
6 *4379:A *4379:B 0.000116158
7 *392:18 *4379:B 0
*RES
1 *4378:Y *4379:B 9.855 
*END

*D_NET *520 0.000703387
*CONN
*I *4380:B I *D sky130_fd_sc_hd__xnor2_2
*I *4379:Y O *D sky130_fd_sc_hd__xnor2_2
*CAP
1 *4380:B 0.000183399
2 *4379:Y 0.000183399
3 *4380:B *4377:A 0
4 *4380:B *705:38 6.86563e-05
5 *4287:A *4380:B 0.000112123
6 *4339:A2_N *4380:B 0.000109198
7 *296:39 *4380:B 4.66108e-05
8 *430:10 *4380:B 0
*RES
1 *4379:Y *4380:B 11.07 
*END

*D_NET *521 0.000686295
*CONN
*I *4381:B I *D sky130_fd_sc_hd__xnor2_2
*I *4380:Y O *D sky130_fd_sc_hd__xnor2_2
*CAP
1 *4381:B 0.000137191
2 *4380:Y 0.000137191
3 *4381:B *705:38 7.60259e-05
4 *4381:B *914:29 4.77807e-05
5 *4340:A2 *4381:B 0.000117825
6 *478:16 *4381:B 0.000170281
*RES
1 *4380:Y *4381:B 11.325 
*END

*D_NET *522 0.00074372
*CONN
*I *4383:A I *D sky130_fd_sc_hd__xnor2_2
*I *4381:Y O *D sky130_fd_sc_hd__xnor2_2
*CAP
1 *4383:A 0.000134948
2 *4381:Y 0.000134948
3 *4383:A *914:29 4.77807e-05
4 *333:10 *4383:A 0.000309354
5 *483:8 *4383:A 0.00011669
*RES
1 *4381:Y *4383:A 11.325 
*END

*D_NET *523 0.000494873
*CONN
*I *4383:B I *D sky130_fd_sc_hd__xnor2_2
*I *4382:X O *D sky130_fd_sc_hd__xor2_2
*CAP
1 *4383:B 9.6385e-05
2 *4382:X 9.6385e-05
3 *4383:B *4384:B 9.24825e-05
4 *417:29 *4383:B 8.41384e-05
5 *462:14 *4383:B 5.21533e-05
6 *483:8 *4383:B 7.33283e-05
*RES
1 *4382:X *4383:B 9.63 
*END

*D_NET *524 0.000695245
*CONN
*I *4384:B I *D sky130_fd_sc_hd__xnor2_2
*I *4383:Y O *D sky130_fd_sc_hd__xnor2_2
*CAP
1 *4384:B 0.000191112
2 *4383:Y 0.000191112
3 *4384:B *4387:A 4.6038e-05
4 *4344:A1 *4384:B 1.70935e-05
5 *4344:A2 *4384:B 9.50342e-06
6 *4383:B *4384:B 9.24825e-05
7 *462:14 *4384:B 4.77807e-05
8 *483:8 *4384:B 5.36975e-06
9 *483:17 *4384:B 9.47524e-05
*RES
1 *4383:Y *4384:B 11.325 
*END

*D_NET *525 0.00141889
*CONN
*I *4388:A I *D sky130_fd_sc_hd__xnor2_2
*I *4384:Y O *D sky130_fd_sc_hd__xnor2_2
*CAP
1 *4388:A 0.000446322
2 *4384:Y 0.000446322
3 *4388:A *4387:B 0.000314452
4 *4388:A *4388:B 5.92849e-05
5 *4388:A *4728:A 4.99619e-05
6 *4343:B *4388:A 3.59784e-05
7 *4343:C *4388:A 6.6564e-05
8 *4344:B1 *4388:A 0
9 *4346:A1 *4388:A 0
*RES
1 *4384:Y *4388:A 15.18 
*END

*D_NET *526 0.000967722
*CONN
*I *4387:A I *D sky130_fd_sc_hd__xor2_2
*I *4385:X O *D sky130_fd_sc_hd__a21o_2
*CAP
1 *4387:A 0.000322142
2 *4385:X 0.000322142
3 *4387:A *4387:B 0
4 *4387:A *4728:A 1.07797e-05
5 *4387:A *1012:38 4.66108e-05
6 *4321:A *4387:A 0
7 *4321:B *4387:A 0
8 *4344:A2 *4387:A 8.71001e-05
9 *4384:B *4387:A 4.6038e-05
10 *484:12 *4387:A 0.000132908
*RES
1 *4385:X *4387:A 13.365 
*END

*D_NET *527 0.00111625
*CONN
*I *4387:B I *D sky130_fd_sc_hd__xor2_2
*I *4386:X O *D sky130_fd_sc_hd__a31o_2
*CAP
1 *4387:B 0.000228797
2 *4386:X 0.000228797
3 *4387:B *1012:38 1.64141e-05
4 *4321:A *4387:B 0.000327792
5 *4344:B1 *4387:B 0
6 *4387:A *4387:B 0
7 *4388:A *4387:B 0.000314452
8 *436:27 *4387:B 0
*RES
1 *4386:X *4387:B 11.57 
*END

*D_NET *528 0.000206752
*CONN
*I *4388:B I *D sky130_fd_sc_hd__xnor2_2
*I *4387:X O *D sky130_fd_sc_hd__xor2_2
*CAP
1 *4388:B 7.37334e-05
2 *4387:X 7.37334e-05
3 *4388:A *4388:B 5.92849e-05
*RES
1 *4387:X *4388:B 8.835 
*END

*D_NET *529 0.00178295
*CONN
*I *4389:B I *D sky130_fd_sc_hd__xnor2_2
*I *4388:Y O *D sky130_fd_sc_hd__xnor2_2
*CAP
1 *4389:B 0.000785471
2 *4388:Y 0.000785471
3 *4347:A *4389:B 9.46336e-05
4 *4347:B *4389:B 2.05498e-05
5 *4389:A *4389:B 4.40899e-05
6 *439:10 *4389:B 4.18603e-06
7 *489:8 *4389:B 4.85494e-05
*RES
1 *4388:Y *4389:B 16.965 
*END

*D_NET *530 0.00175563
*CONN
*I *4390:B I *D sky130_fd_sc_hd__xnor2_2
*I *4389:Y O *D sky130_fd_sc_hd__xnor2_2
*CAP
1 *4390:B 0.000491015
2 *4389:Y 0.000491015
3 *4390:B *4696:A 0.000468744
4 *4390:B *617:12 3.23663e-05
5 *4390:B *617:57 0.000272489
*RES
1 *4389:Y *4390:B 12.635 
*END

*D_NET *531 0.00123866
*CONN
*I *4391:A0 I *D sky130_fd_sc_hd__mux2_1
*I *4390:Y O *D sky130_fd_sc_hd__xnor2_2
*CAP
1 *4391:A0 0.00038727
2 *4390:Y 0.00038727
3 *4391:A0 *617:57 3.00381e-05
4 *4391:A0 *617:68 4.35348e-05
5 *4391:A0 *617:81 0
6 *4354:B *4391:A0 0
7 *4625:D *4391:A0 0.000390546
*RES
1 *4390:Y *4391:A0 14.7 
*END

*D_NET *532 0.0109089
*CONN
*I *4400:B1 I *D sky130_fd_sc_hd__a22o_2
*I *4739:A I *D sky130_fd_sc_hd__clkdlybuf4s25_1
*I *4392:Y O *D sky130_fd_sc_hd__nor2_2
*CAP
1 *4400:B1 0.00117257
2 *4739:A 3.6193e-05
3 *4392:Y 0.00120647
4 *532:41 0.00305138
5 *532:18 0.00312148
6 *4400:B1 *4196:A 5.42646e-05
7 *4400:B1 *4227:A1 0.000213507
8 *4400:B1 *4400:A1 2.88357e-05
9 *4400:B1 *4400:B2 8.33066e-06
10 *4400:B1 *4633:RESET_B 7.35766e-05
11 *4400:B1 *4637:CLK 0
12 *4400:B1 *615:122 0
13 *4400:B1 *709:47 0.000147068
14 *532:18 *4475:A1 9.58678e-06
15 *532:18 *1004:60 0
16 *532:18 *1019:26 1.88656e-05
17 *532:18 *1129:16 0.000360349
18 *532:41 *3980:A1 3.45588e-05
19 *532:41 *4618:RESET_B 0.000142267
20 *532:41 *711:70 8.07672e-05
21 *3969:C *532:41 5.78594e-05
22 *3974:B *532:18 4.61701e-06
23 *3980:B1_N *532:41 0.000158218
24 *3982:B1_N *532:41 0.000108568
25 *4264:A0 *4400:B1 0.000185411
26 *4400:A2 *4400:B1 0
27 *4400:A2 *532:41 0
28 *4466:S *4400:B1 0
29 *4466:S *532:41 0
30 *4622:D *4400:B1 0.000296088
31 *4623:D *4400:B1 5.01003e-05
32 *4906:A *4400:B1 5.81739e-05
33 *261:37 *4400:B1 8.09021e-06
34 *261:39 *4400:B1 6.14689e-05
35 *261:43 *4400:B1 0.000160194
36 *261:49 *4400:B1 0
*RES
1 *4392:Y *532:18 9.25887 
2 *532:18 *4739:A 2.215 
3 *532:18 *532:41 27.3425 
4 *532:41 *4400:B1 29.4375 
*END

*D_NET *533 0.000779233
*CONN
*I *4402:A0 I *D sky130_fd_sc_hd__mux2_1
*I *4401:X O *D sky130_fd_sc_hd__xor2_2
*CAP
1 *4402:A0 6.33207e-05
2 *4401:X 6.33207e-05
3 *4402:A0 *4393:A1 3.09088e-05
4 *4402:A0 *628:42 0.000272984
5 *259:29 *4402:A0 0.000348699
*RES
1 *4401:X *4402:A0 6.41 
*END

*D_NET *534 0.00134038
*CONN
*I *4406:A I *D sky130_fd_sc_hd__or4bb_2
*I *4407:B1 I *D sky130_fd_sc_hd__o2bb2a_2
*I *4403:X O *D sky130_fd_sc_hd__and2_2
*CAP
1 *4406:A 0
2 *4407:B1 0.000168001
3 *4403:X 4.75305e-05
4 *534:6 0.000215531
5 *4407:B1 *4406:D_N 7.67267e-05
6 *4407:B1 *4407:B2 0.000291372
7 *4407:B1 *4409:B1 7.03692e-05
8 *534:6 *579:27 0.000192125
9 *4408:A *4407:B1 8.49205e-05
10 *263:39 *534:6 0.000193806
*RES
1 *4403:X *534:6 3.43 
2 *534:6 *4407:B1 10.325 
3 *534:6 *4406:A 1.6 
*END

*D_NET *535 0.00113076
*CONN
*I *4413:A1 I *D sky130_fd_sc_hd__a211oi_2
*I *4412:B1 I *D sky130_fd_sc_hd__o211a_2
*I *4404:Y O *D sky130_fd_sc_hd__nand2_2
*CAP
1 *4413:A1 0
2 *4412:B1 6.8122e-05
3 *4404:Y 0.000195155
4 *535:8 0.000263277
5 *4412:B1 *4412:A1 2.42236e-05
6 *4412:B1 *4412:C1 0.00016163
7 *4412:B1 *4413:C1 8.38856e-05
8 *535:8 *4410:A 0
9 *535:8 *4412:C1 9.50342e-06
10 *535:8 *4424:B1_N 0
11 *535:8 *537:12 0.000324965
*RES
1 *4404:Y *535:8 7.53 
2 *535:8 *4412:B1 6 
3 *535:8 *4413:A1 3.6 
*END

*D_NET *536 0.00169168
*CONN
*I *4407:B2 I *D sky130_fd_sc_hd__o2bb2a_2
*I *4406:B I *D sky130_fd_sc_hd__or4bb_2
*I *4405:Y O *D sky130_fd_sc_hd__nor2_2
*CAP
1 *4407:B2 0.000117843
2 *4406:B 3.38648e-05
3 *4405:Y 0.000197938
4 *536:10 0.000349647
5 *4406:B *980:77 4.82919e-05
6 *4407:B2 *4409:B1 0.000249234
7 *4407:B2 *537:12 0.00010596
8 *536:10 *4405:B 4.82919e-05
9 *536:10 *537:12 0.000249234
10 *536:10 *980:77 0
11 *536:10 *980:88 0
12 *4407:B1 *4407:B2 0.000291372
*RES
1 *4405:Y *536:10 6.96 
2 *536:10 *4406:B 4.05 
3 *536:10 *4407:B2 7.785 
*END

*D_NET *537 0.00443276
*CONN
*I *4409:B1 I *D sky130_fd_sc_hd__a22o_2
*I *4413:A2 I *D sky130_fd_sc_hd__a211oi_2
*I *4412:C1 I *D sky130_fd_sc_hd__o211a_2
*I *4406:X O *D sky130_fd_sc_hd__or4bb_2
*CAP
1 *4409:B1 0.000380135
2 *4413:A2 2.22374e-05
3 *4412:C1 0.000138729
4 *4406:X 0
5 *537:12 0.000539942
6 *537:6 0.00075911
7 *4409:B1 *4393:A2 0.00032734
8 *4409:B1 *4406:D_N 0
9 *4409:B1 *4407:A1_N 5.88946e-05
10 *4409:B1 *4407:A2_N 4.82863e-05
11 *4409:B1 *4409:B2 0.000198939
12 *4412:C1 *4412:A1 0.000139238
13 *4412:C1 *4412:A2 8.01019e-05
14 *4412:C1 *540:30 1.07797e-05
15 *4413:A2 *4413:B1 4.66108e-05
16 *4413:A2 *4809:A 2.05056e-05
17 *4413:A2 *543:10 4.82919e-05
18 *537:12 *4393:A2 9.30787e-05
19 *537:12 *4393:B1 2.97291e-05
20 *537:12 *540:30 1.07797e-05
21 *537:12 *543:10 0.000113797
22 *537:12 *543:27 8.82909e-05
23 *537:12 *572:12 0
24 *537:12 *572:18 0
25 *537:12 *580:29 0
26 *537:12 *980:88 0
27 *4407:B1 *4409:B1 7.03692e-05
28 *4407:B2 *4409:B1 0.000249234
29 *4407:B2 *537:12 0.00010596
30 *4408:A *4409:B1 8.53569e-05
31 *4412:B1 *4412:C1 0.00016163
32 *262:47 *4413:A2 2.16917e-05
33 *535:8 *4412:C1 9.50342e-06
34 *535:8 *537:12 0.000324965
35 *536:10 *537:12 0.000249234
*RES
1 *4406:X *537:6 3.6 
2 *537:6 *537:12 9.33 
3 *537:12 *4412:C1 7.35 
4 *537:12 *4413:A2 4.395 
5 *537:6 *4409:B1 12.81 
*END

*D_NET *538 0.00117018
*CONN
*I *4408:B I *D sky130_fd_sc_hd__nor2_2
*I *4407:X O *D sky130_fd_sc_hd__o2bb2a_2
*CAP
1 *4408:B 0.000259657
2 *4407:X 0.000259657
3 *4408:B *4406:D_N 0.000111196
4 *4408:B *4409:B2 0.000376063
5 *4408:B *4627:RESET_B 3.50445e-06
6 *4408:B *4680:RESET_B 0.000135884
7 *4408:B *579:42 2.42236e-05
*RES
1 *4407:X *4408:B 13.875 
*END

*D_NET *539 0.00194653
*CONN
*I *4409:B2 I *D sky130_fd_sc_hd__a22o_2
*I *4408:Y O *D sky130_fd_sc_hd__nor2_2
*CAP
1 *4409:B2 0.000526238
2 *4408:Y 0.000526238
3 *4409:B2 *4401:A 2.07184e-05
4 *4409:B2 *4406:D_N 3.31204e-05
5 *4409:B2 *4407:A1_N 4.66108e-05
6 *4409:B2 *4627:RESET_B 1.33293e-05
7 *4409:B2 *579:42 0.000114492
8 *4408:A *4409:B2 9.07793e-05
9 *4408:B *4409:B2 0.000376063
10 *4409:B1 *4409:B2 0.000198939
*RES
1 *4408:Y *4409:B2 16.305 
*END

*D_NET *540 0.00241958
*CONN
*I *4413:B1 I *D sky130_fd_sc_hd__a211oi_2
*I *4412:A1 I *D sky130_fd_sc_hd__o211a_2
*I *4418:A I *D sky130_fd_sc_hd__or3_2
*I *4419:A1 I *D sky130_fd_sc_hd__o21ai_2
*I *4410:X O *D sky130_fd_sc_hd__and2_2
*CAP
1 *4413:B1 5.14843e-05
2 *4412:A1 8.77996e-05
3 *4418:A 1.34399e-05
4 *4419:A1 0.000115218
5 *4410:X 0
6 *540:30 0.000219134
7 *540:8 0.000386814
8 *540:4 0.000338006
9 *4412:A1 *4414:A 5.12772e-05
10 *4412:A1 *573:21 0
11 *4413:B1 *4809:A 2.96426e-05
12 *4413:B1 *543:10 4.0843e-05
13 *4418:A *4410:B 0
14 *4418:A *4419:A2 0
15 *4419:A1 *4418:C 8.65961e-05
16 *4419:A1 *4419:A2 7.06336e-05
17 *4419:A1 *4419:B1 0.000127741
18 *4419:A1 *4420:A3 3.09088e-05
19 *540:8 *4410:A 7.35813e-05
20 *540:8 *4410:B 8.73389e-06
21 *540:8 *4414:B 4.66108e-05
22 *540:8 *4419:A2 9.80032e-06
23 *540:8 *543:27 6.0147e-06
24 *540:30 *4414:A 3.68784e-05
25 *540:30 *4809:A 7.06865e-05
26 *540:30 *543:10 9.14049e-05
27 *4412:B1 *4412:A1 2.42236e-05
28 *4412:C1 *4412:A1 0.000139238
29 *4412:C1 *540:30 1.07797e-05
30 *4413:A2 *4413:B1 4.66108e-05
31 *262:47 *4413:B1 0.000194694
32 *537:12 *540:30 1.07797e-05
*RES
1 *4410:X *540:4 1.6 
2 *540:4 *540:8 3.225 
3 *540:8 *4419:A1 4.48 
4 *540:8 *4418:A 1.96 
5 *540:4 *540:30 4.085 
6 *540:30 *4412:A1 5.85375 
7 *540:30 *4413:B1 5.43 
*END

*D_NET *541 0.00181179
*CONN
*I *4413:C1 I *D sky130_fd_sc_hd__a211oi_2
*I *4412:A2 I *D sky130_fd_sc_hd__o211a_2
*I *4411:Y O *D sky130_fd_sc_hd__nor2_2
*CAP
1 *4413:C1 0.000154183
2 *4412:A2 0.000106532
3 *4411:Y 0.000233232
4 *541:8 0.000493947
5 *4413:C1 *4410:A 8.04163e-05
6 *4413:C1 *4411:A 5.18691e-05
7 *4413:C1 *4809:A 2.75229e-05
8 *4413:C1 *573:21 0
9 *541:8 *4396:B2 0.000116158
10 *541:8 *4411:A 0.000196414
11 *541:8 *4629:RESET_B 0.000139238
12 *541:8 *4732:A 0
13 *541:8 *573:21 0
14 *4412:B1 *4413:C1 8.38856e-05
15 *4412:C1 *4412:A2 8.01019e-05
16 *262:47 *4413:C1 4.82919e-05
*RES
1 *4411:Y *541:8 9.315 
2 *541:8 *4412:A2 5.445 
3 *541:8 *4413:C1 7.155 
*END

*D_NET *542 0.000831614
*CONN
*I *4414:A I *D sky130_fd_sc_hd__nor2_2
*I *4412:X O *D sky130_fd_sc_hd__o211a_2
*CAP
1 *4414:A 0.000108633
2 *4412:X 0.000108633
3 *4414:A *4410:B 0.000175894
4 *4414:A *4414:B 4.66108e-05
5 *4414:A *4809:A 0.000162776
6 *4414:A *573:21 0.000140912
7 *4412:A1 *4414:A 5.12772e-05
8 *540:30 *4414:A 3.68784e-05
*RES
1 *4412:X *4414:A 11.325 
*END

*D_NET *543 0.00254783
*CONN
*I *4419:A2 I *D sky130_fd_sc_hd__o21ai_2
*I *4418:B I *D sky130_fd_sc_hd__or3_2
*I *4414:B I *D sky130_fd_sc_hd__nor2_2
*I *4413:Y O *D sky130_fd_sc_hd__a211oi_2
*CAP
1 *4419:A2 0.000102191
2 *4418:B 7.57775e-05
3 *4414:B 0.000143363
4 *4413:Y 7.44884e-05
5 *543:27 0.000340296
6 *543:10 0.000380179
7 *4414:B *4410:B 2.8185e-05
8 *4414:B *4809:A 6.38806e-05
9 *4418:B *4420:A3 8.8266e-05
10 *4419:A2 *4410:A 8.65961e-05
11 *4419:A2 *4410:B 1.37328e-05
12 *4419:A2 *4418:C 8.65961e-05
13 *4419:A2 *4420:A3 0.000278117
14 *543:10 *4809:A 0.000130536
15 *543:27 *4410:A 1.61831e-05
16 *543:27 *4410:B 4.66108e-05
17 *543:27 *4809:A 3.05373e-05
18 *4413:A2 *543:10 4.82919e-05
19 *4413:B1 *543:10 4.0843e-05
20 *4414:A *4414:B 4.66108e-05
21 *4418:A *4419:A2 0
22 *4419:A1 *4419:A2 7.06336e-05
23 *537:12 *543:10 0.000113797
24 *537:12 *543:27 8.82909e-05
25 *540:8 *4414:B 4.66108e-05
26 *540:8 *4419:A2 9.80032e-06
27 *540:8 *543:27 6.0147e-06
28 *540:30 *543:10 9.14049e-05
*RES
1 *4413:Y *543:10 6.12 
2 *543:10 *4414:B 6.135 
3 *543:10 *543:27 4.61 
4 *543:27 *4418:B 2.74 
5 *543:27 *4419:A2 5.44 
*END

*D_NET *544 0.000989842
*CONN
*I *4415:A0 I *D sky130_fd_sc_hd__mux2_1
*I *4414:Y O *D sky130_fd_sc_hd__nor2_2
*CAP
1 *4415:A0 0.000364406
2 *4414:Y 0.000364406
3 *4415:A0 *4410:B 2.87867e-05
4 *4415:A0 *4415:A1 1.83756e-05
5 *4415:A0 *980:88 7.23602e-05
6 *262:47 *4415:A0 0.00011485
7 *262:56 *4415:A0 2.66586e-05
*RES
1 *4414:Y *4415:A0 12.315 
*END

*D_NET *545 0.000928335
*CONN
*I *4420:B1 I *D sky130_fd_sc_hd__a41o_2
*I *4416:X O *D sky130_fd_sc_hd__and2_2
*CAP
1 *4420:B1 0.000198042
2 *4416:X 0.000198042
3 *4420:B1 *5009:A 5.16348e-05
4 *4416:B *4420:B1 8.6311e-05
5 *4466:S *4420:B1 9.32134e-05
6 *4637:D *4420:B1 0.00020344
7 *262:28 *4420:B1 9.76522e-05
*RES
1 *4416:X *4420:B1 12.615 
*END

*D_NET *546 0.00173457
*CONN
*I *4418:C I *D sky130_fd_sc_hd__or3_2
*I *4419:B1 I *D sky130_fd_sc_hd__o21ai_2
*I *4417:X O *D sky130_fd_sc_hd__xor2_2
*CAP
1 *4418:C 4.289e-05
2 *4419:B1 0.000154558
3 *4417:X 0.000197162
4 *546:8 0.000394611
5 *4418:C *4424:B1_N 4.31106e-05
6 *4419:B1 *4420:A3 9.27255e-06
7 *4419:B1 *4420:A4 3.00381e-05
8 *546:8 *4410:A 0
9 *546:8 *4411:A 0
10 *546:8 *4424:B1_N 0.000445839
11 *546:8 *5019:A 0.000116151
12 *4419:A1 *4418:C 8.65961e-05
13 *4419:A1 *4419:B1 0.000127741
14 *4419:A2 *4418:C 8.65961e-05
*RES
1 *4417:X *546:8 8.805 
2 *546:8 *4419:B1 5.79 
3 *546:8 *4418:C 5.01 
*END

*D_NET *547 0.00124043
*CONN
*I *4420:A3 I *D sky130_fd_sc_hd__a41o_2
*I *4418:X O *D sky130_fd_sc_hd__or3_2
*CAP
1 *4420:A3 0.00027231
2 *4418:X 0.00027231
3 *4420:A3 *4420:A4 0.000164352
4 *4420:A3 *4424:B1_N 0.000124895
5 *4418:B *4420:A3 8.8266e-05
6 *4419:A1 *4420:A3 3.09088e-05
7 *4419:A2 *4420:A3 0.000278117
8 *4419:B1 *4420:A3 9.27255e-06
*RES
1 *4418:X *4420:A3 9.53 
*END

*D_NET *548 0.00225842
*CONN
*I *4424:B1_N I *D sky130_fd_sc_hd__a21boi_2
*I *4420:A4 I *D sky130_fd_sc_hd__a41o_2
*I *4419:Y O *D sky130_fd_sc_hd__o21ai_2
*CAP
1 *4424:B1_N 0.000471671
2 *4420:A4 0.000155295
3 *4419:Y 0.000626966
4 *4424:B1_N *4411:A 0
5 *4424:B1_N *4637:RESET_B 0
6 *4424:B1_N *615:116 0.00019625
7 *4418:C *4424:B1_N 4.31106e-05
8 *4419:B1 *4420:A4 3.00381e-05
9 *4420:A3 *4420:A4 0.000164352
10 *4420:A3 *4424:B1_N 0.000124895
11 *4458:S *4424:B1_N 0
12 *535:8 *4424:B1_N 0
13 *546:8 *4424:B1_N 0.000445839
*RES
1 *4419:Y *4420:A4 6.41 
2 *4419:Y *4424:B1_N 17.37 
*END

*D_NET *549 0.00188487
*CONN
*I *4430:B1_N I *D sky130_fd_sc_hd__o21ba_2
*I *4423:A I *D sky130_fd_sc_hd__nor2_2
*I *4421:X O *D sky130_fd_sc_hd__and2_2
*CAP
1 *4430:B1_N 0.000453717
2 *4423:A 2.89361e-05
3 *4421:X 0.000126332
4 *549:6 0.000608985
5 *4423:A *552:18 1.85674e-05
6 *4430:B1_N *4398:B2 0.000141599
7 *4430:B1_N *4399:B1 7.89689e-05
8 *4430:B1_N *4426:A0 3.1835e-05
9 *4430:B1_N *4430:A2 7.40446e-05
10 *4430:B1_N *552:18 0.000191384
11 *549:6 *4421:B 0.00011577
12 *549:6 *552:18 1.47347e-05
*RES
1 *4421:X *549:6 3.775 
2 *549:6 *4423:A 2.215 
3 *549:6 *4430:B1_N 13.55 
*END

*D_NET *550 0.00145515
*CONN
*I *4423:B I *D sky130_fd_sc_hd__nor2_2
*I *4430:A1 I *D sky130_fd_sc_hd__o21ba_2
*I *4422:Y O *D sky130_fd_sc_hd__nor2_2
*CAP
1 *4423:B 0.00013244
2 *4430:A1 0.000175471
3 *4422:Y 7.73752e-05
4 *550:8 0.000385287
5 *4423:B *4421:B 7.44453e-05
6 *4423:B *4422:B 2.4997e-05
7 *4423:B *4732:A 0
8 *4430:A1 *4430:A2 4.60584e-05
9 *4430:A1 *5004:A 0.000312964
10 *4430:A1 *575:22 2.75229e-05
11 *550:8 *4397:B2 5.39718e-05
12 *550:8 *4422:B 2.60986e-05
13 *550:8 *4630:RESET_B 0.00011852
14 *550:8 *4732:A 0
*RES
1 *4422:Y *550:8 5.49 
2 *550:8 *4430:A1 7.5 
3 *550:8 *4423:B 5.745 
*END

*D_NET *551 0.0003098
*CONN
*I *4425:A I *D sky130_fd_sc_hd__xnor2_2
*I *4423:Y O *D sky130_fd_sc_hd__nor2_2
*CAP
1 *4425:A 6.83066e-05
2 *4423:Y 6.83066e-05
3 *4425:A *4430:A2 4.82919e-05
4 *4425:A *552:18 0.000124895
*RES
1 *4423:Y *4425:A 4.685 
*END

*D_NET *552 0.00295202
*CONN
*I *4430:A2 I *D sky130_fd_sc_hd__o21ba_2
*I *4425:B I *D sky130_fd_sc_hd__xnor2_2
*I *4424:Y O *D sky130_fd_sc_hd__a21boi_2
*CAP
1 *4430:A2 0.000295518
2 *4425:B 0
3 *4424:Y 0.000605884
4 *552:18 0.000901402
5 *4430:A2 *4732:A 0.000111316
6 *4430:A2 *5004:A 8.65961e-05
7 *552:18 *4396:B1 0
8 *552:18 *4397:B1 0.000208491
9 *552:18 *4411:A 0
10 *552:18 *4421:B 0.000160635
11 *552:18 *615:10 0
12 *552:18 *615:16 0
13 *552:18 *615:116 0
14 *552:18 *629:70 6.42013e-05
15 *4423:A *552:18 1.85674e-05
16 *4425:A *4430:A2 4.82919e-05
17 *4425:A *552:18 0.000124895
18 *4430:A1 *4430:A2 4.60584e-05
19 *4430:B1_N *4430:A2 7.40446e-05
20 *4430:B1_N *552:18 0.000191384
21 *4631:D *4430:A2 0
22 *549:6 *552:18 1.47347e-05
*RES
1 *4424:Y *552:18 16.91 
2 *552:18 *4425:B 1.6 
3 *552:18 *4430:A2 11.33 
*END

*D_NET *553 0.00111008
*CONN
*I *4426:A0 I *D sky130_fd_sc_hd__mux2_1
*I *4425:Y O *D sky130_fd_sc_hd__xnor2_2
*CAP
1 *4426:A0 0.000515606
2 *4425:Y 0.000515606
3 *4426:A0 *615:51 0
4 *4426:A0 *615:59 0
5 *4430:B1_N *4426:A0 3.1835e-05
6 *4638:D *4426:A0 4.70343e-05
7 *262:105 *4426:A0 0
8 *262:107 *4426:A0 0
*RES
1 *4425:Y *4426:A0 14.79 
*END

*D_NET *554 0.000476684
*CONN
*I *4429:A I *D sky130_fd_sc_hd__nor2_2
*I *4436:B1_N I *D sky130_fd_sc_hd__o21ba_2
*I *4427:X O *D sky130_fd_sc_hd__and2_2
*CAP
1 *4429:A 4.29618e-05
2 *4436:B1_N 0
3 *4427:X 4.06094e-05
4 *554:10 8.35712e-05
5 *4429:A *4429:B 5.12715e-05
6 *4429:A *4436:A2 8.35157e-05
7 *554:10 *4427:B 6.21647e-05
8 *554:10 *562:10 0.000112589
*RES
1 *4427:X *554:10 6.98 
2 *554:10 *4436:B1_N 1.6 
3 *554:10 *4429:A 2.755 
*END

*D_NET *555 0.00102954
*CONN
*I *4429:B I *D sky130_fd_sc_hd__nor2_2
*I *4436:A1 I *D sky130_fd_sc_hd__o21ba_2
*I *4428:Y O *D sky130_fd_sc_hd__nor2_2
*CAP
1 *4429:B 0.000223573
2 *4436:A1 1.8374e-05
3 *4428:Y 9.78169e-05
4 *555:12 0.000339764
5 *4429:B *4436:A2 6.69252e-05
6 *4429:B *4623:CLK 1.32026e-05
7 *4429:B *562:10 8.52972e-05
8 *4436:A1 *4436:A2 5.19006e-06
9 *555:12 *4623:CLK 3.56402e-05
10 *555:12 *4630:RESET_B 9.24825e-05
11 *4429:A *4429:B 5.12715e-05
*RES
1 *4428:Y *555:12 7.52 
2 *555:12 *4436:A1 1.96 
3 *555:12 *4429:B 5.515 
*END

*D_NET *556 0.000214857
*CONN
*I *4431:A I *D sky130_fd_sc_hd__xnor2_2
*I *4429:Y O *D sky130_fd_sc_hd__nor2_2
*CAP
1 *4431:A 4.52639e-05
2 *4429:Y 4.52639e-05
3 *4431:A *4399:A2 5.00317e-05
4 *4431:A *4436:A2 6.21647e-05
5 *4431:A *980:109 1.21329e-05
*RES
1 *4429:Y *4431:A 8.58 
*END

*D_NET *557 0.00162854
*CONN
*I *4436:A2 I *D sky130_fd_sc_hd__o21ba_2
*I *4431:B I *D sky130_fd_sc_hd__xnor2_2
*I *4430:X O *D sky130_fd_sc_hd__o21ba_2
*CAP
1 *4436:A2 0.000332595
2 *4431:B 0.000424631
3 *4430:X 9.20362e-05
4 *4431:B *4399:B1 0.000315479
5 *4431:B *980:109 0.000197705
6 *4436:A2 *562:10 4.83032e-05
7 *4429:A *4436:A2 8.35157e-05
8 *4429:B *4436:A2 6.69252e-05
9 *4431:A *4436:A2 6.21647e-05
10 *4436:A1 *4436:A2 5.19006e-06
*RES
1 *4430:X *4431:B 10.875 
2 *4431:B *4436:A2 12.735 
*END

*D_NET *558 0.00118716
*CONN
*I *4432:A0 I *D sky130_fd_sc_hd__mux2_1
*I *4431:Y O *D sky130_fd_sc_hd__xnor2_2
*CAP
1 *4432:A0 0.000500485
2 *4431:Y 0.000500485
3 *4639:D *4432:A0 6.30072e-05
4 *262:107 *4432:A0 0.000103803
5 *262:111 *4432:A0 1.93849e-05
*RES
1 *4431:Y *4432:A0 14.685 
*END

*D_NET *559 0.00304685
*CONN
*I *4439:B1_N I *D sky130_fd_sc_hd__o21ba_2
*I *4435:A I *D sky130_fd_sc_hd__nor2_2
*I *4433:X O *D sky130_fd_sc_hd__and2_2
*CAP
1 *4439:B1_N 1.11436e-05
2 *4435:A 0.000445177
3 *4433:X 0.000505708
4 *559:10 0.000962029
5 *4435:A *4399:B2 7.03276e-05
6 *4435:A *4435:B 0.000281461
7 *4435:A *4437:A 6.54361e-06
8 *4435:A *4439:A1 2.69153e-05
9 *4435:A *616:58 5.98664e-05
10 *4439:B1_N *4649:CLK 2.57991e-05
11 *4439:B1_N *4732:A 5.20249e-05
12 *559:10 *4433:A 0
13 *559:10 *4441:A 0
14 *559:10 *4450:A0 0
15 *559:10 *4450:A1 0
16 *559:10 *4649:CLK 6.56509e-05
17 *559:10 *4657:RESET_B 0.000381337
18 *559:10 *4732:A 0.000152867
19 *559:10 *4792:A 0
*RES
1 *4433:X *559:10 13.425 
2 *559:10 *4435:A 13.75 
3 *559:10 *4439:B1_N 4.215 
*END

*D_NET *560 0.00240586
*CONN
*I *4435:B I *D sky130_fd_sc_hd__nor2_2
*I *4439:A1 I *D sky130_fd_sc_hd__o21ba_2
*I *4434:Y O *D sky130_fd_sc_hd__nor2_2
*CAP
1 *4435:B 0.000139512
2 *4439:A1 1.40022e-05
3 *4434:Y 0.000376959
4 *560:12 0.000530473
5 *4435:B *4399:A1 0.000240942
6 *4435:B *4399:A2 1.34584e-05
7 *4435:B *4437:A 8.33066e-06
8 *4435:B *4632:D 2.25299e-05
9 *4435:B *616:58 7.10183e-05
10 *4439:A1 *616:58 2.69153e-05
11 *560:12 *4437:B 0.000126975
12 *560:12 *4641:RESET_B 0
13 *560:12 *4792:A 7.23533e-05
14 *560:12 *5006:A 0
15 *560:12 *577:10 8.98657e-05
16 *560:12 *585:37 0.000139933
17 *560:12 *722:32 8.57024e-05
18 *4435:A *4435:B 0.000281461
19 *4435:A *4439:A1 2.69153e-05
20 *4793:A *560:12 0.000108659
21 *5007:A *560:12 2.98587e-05
*RES
1 *4434:Y *560:12 13.895 
2 *560:12 *4439:A1 2.05 
3 *560:12 *4435:B 10.235 
*END

*D_NET *561 0.00136903
*CONN
*I *4437:A I *D sky130_fd_sc_hd__xnor2_2
*I *4435:Y O *D sky130_fd_sc_hd__nor2_2
*CAP
1 *4437:A 0.000462747
2 *4435:Y 0.000462747
3 *4437:A *4438:A0 4.99619e-05
4 *4437:A *4632:CLK 0
5 *4437:A *4632:D 0.000333749
6 *4437:A *5006:A 4.49498e-05
7 *4437:A *577:10 0
8 *4435:A *4437:A 6.54361e-06
9 *4435:B *4437:A 8.33066e-06
*RES
1 *4435:Y *4437:A 16.035 
*END

*D_NET *562 0.00210711
*CONN
*I *4439:A2 I *D sky130_fd_sc_hd__o21ba_2
*I *4437:B I *D sky130_fd_sc_hd__xnor2_2
*I *4436:X O *D sky130_fd_sc_hd__o21ba_2
*CAP
1 *4439:A2 0
2 *4437:B 0.000219354
3 *4436:X 0.00026421
4 *562:10 0.000483563
5 *4437:B *4641:RESET_B 0.000173191
6 *4437:B *4792:A 5.05437e-05
7 *4437:B *5040:A 0.000137632
8 *4437:B *585:37 8.65961e-05
9 *562:10 *4427:B 4.95093e-05
10 *562:10 *5040:A 6.79482e-05
11 *4429:B *562:10 8.52972e-05
12 *4436:A2 *562:10 4.83032e-05
13 *4793:A *4437:B 0.0002014
14 *554:10 *562:10 0.000112589
15 *560:12 *4437:B 0.000126975
*RES
1 *4436:X *562:10 9.09 
2 *562:10 *4437:B 10.875 
3 *562:10 *4439:A2 3.6 
*END

*D_NET *563 0.00123146
*CONN
*I *4438:A0 I *D sky130_fd_sc_hd__mux2_1
*I *4437:Y O *D sky130_fd_sc_hd__xnor2_2
*CAP
1 *4438:A0 0.000293647
2 *4437:Y 0.000293647
3 *4438:A0 *4632:CLK 8.97564e-05
4 *4438:A0 *4632:D 0
5 *4438:A0 *4632:RESET_B 0.000163204
6 *4438:A0 *616:128 5.05437e-05
7 *4437:A *4438:A0 4.99619e-05
8 *4442:S *4438:A0 6.48111e-05
9 *4450:S *4438:A0 6.52265e-05
10 *4640:D *4438:A0 0.000160658
11 *262:111 *4438:A0 0
*RES
1 *4437:Y *4438:A0 13.86 
*END

*D_NET *564 0.00204449
*CONN
*I *4441:A I *D sky130_fd_sc_hd__xnor2_2
*I *4439:X O *D sky130_fd_sc_hd__o21ba_2
*CAP
1 *4441:A 0.000631815
2 *4439:X 0.000631815
3 *4441:A *4356:A1 0.000293414
4 *4441:A *4450:A1 3.86529e-05
5 *4441:A *4649:CLK 0
6 *4441:A *4860:A 0.000103778
7 *4441:A *585:10 0.000180988
8 *4441:A *585:37 4.41506e-05
9 *4441:A *616:58 0.000119873
10 *559:10 *4441:A 0
*RES
1 *4439:X *4441:A 18.66 
*END

*D_NET *565 0.00123912
*CONN
*I *4441:B I *D sky130_fd_sc_hd__xnor2_2
*I *4440:X O *D sky130_fd_sc_hd__xor2_2
*CAP
1 *4441:B 0.000408026
2 *4440:X 0.000408026
3 *4441:B *4440:B 0
4 *4441:B *4474:A1 6.28765e-05
5 *4441:B *4930:A 0
6 *4441:B *585:10 0.000360192
*RES
1 *4440:X *4441:B 15.12 
*END

*D_NET *566 0.00098189
*CONN
*I *4442:A0 I *D sky130_fd_sc_hd__mux2_1
*I *4441:Y O *D sky130_fd_sc_hd__xnor2_2
*CAP
1 *4442:A0 0.000254596
2 *4441:Y 0.000254596
3 *4442:A0 *4356:A1 0.00024268
4 *4442:A0 *4458:A1 0
5 *4442:A0 *4860:A 3.09233e-05
6 *4442:A0 *4905:A 0
7 *4442:A0 *722:42 6.47326e-05
8 *4641:D *4442:A0 0.000134361
*RES
1 *4441:Y *4442:A0 13.05 
*END

*D_NET *567 0.00206465
*CONN
*I *4479:A2 I *D sky130_fd_sc_hd__a21bo_2
*I *4477:A2 I *D sky130_fd_sc_hd__a21bo_2
*I *4475:X O *D sky130_fd_sc_hd__a21o_2
*CAP
1 *4479:A2 0
2 *4477:A2 0.000145703
3 *4475:X 0.000287124
4 *567:6 0.000432827
5 *4477:A2 *4479:B1_N 1.07797e-05
6 *4477:A2 *4706:A 1.82476e-05
7 *4477:A2 *1020:14 0.000282217
8 *4477:A2 *1021:8 0.000272714
9 *4477:A2 *1021:30 3.09233e-05
10 *4477:A2 *1129:50 0
11 *567:6 *1029:45 0.0001249
12 *567:6 *1130:27 0.00023468
13 *4478:C *567:6 0.000224532
*RES
1 *4475:X *567:6 7.915 
2 *567:6 *4477:A2 9.785 
3 *567:6 *4479:A2 1.6 
*END

*D_NET *568 0.000650215
*CONN
*I *4477:B1_N I *D sky130_fd_sc_hd__a21bo_2
*I *4476:X O *D sky130_fd_sc_hd__or3_2
*CAP
1 *4477:B1_N 8.96723e-05
2 *4476:X 8.96723e-05
3 *4477:B1_N *627:37 5.60082e-05
4 *4477:B1_N *1027:20 0.000117723
5 *4477:B1_N *1027:24 0.000163199
6 *4476:A *4477:B1_N 4.52583e-05
7 *4674:D *4477:B1_N 8.86824e-05
*RES
1 *4476:X *4477:B1_N 6.78875 
*END

*D_NET *569 0.00156792
*CONN
*I *4479:B1_N I *D sky130_fd_sc_hd__a21bo_2
*I *4478:X O *D sky130_fd_sc_hd__or4_2
*CAP
1 *4479:B1_N 0.000178276
2 *4478:X 0.000178276
3 *4479:B1_N *4706:A 0.00015356
4 *4479:B1_N *4729:A 1.19928e-05
5 *4479:B1_N *1020:14 8.53113e-06
6 *4479:B1_N *1020:20 9.81771e-05
7 *4479:B1_N *1021:30 1.44259e-05
8 *4479:B1_N *1029:45 0.000426206
9 *4477:A2 *4479:B1_N 1.07797e-05
10 *4478:A *4479:B1_N 0.000389572
11 *4478:C *4479:B1_N 9.81269e-05
*RES
1 *4478:X *4479:B1_N 13.9125 
*END

*D_NET *570 0.000238439
*CONN
*I *4481:B I *D sky130_fd_sc_hd__nor2_2
*I *4480:Y O *D sky130_fd_sc_hd__a21oi_2
*CAP
1 *4481:B 5.10741e-05
2 *4480:Y 5.10741e-05
3 *4481:B *4706:A 2.37321e-05
4 *4481:B *613:14 1.94805e-05
5 *4481:B *1012:14 9.30787e-05
6 *4481:B *1026:22 0
*RES
1 *4480:Y *4481:B 8.58 
*END

*D_NET *571 0.00217075
*CONN
*I *4407:A2_N I *D sky130_fd_sc_hd__o2bb2a_2
*I *4406:D_N I *D sky130_fd_sc_hd__or4bb_2
*I *4907:A I *D sky130_fd_sc_hd__dlygate4sd3_1
*I *4401:B I *D sky130_fd_sc_hd__xor2_2
*I *4626:Q O *D sky130_fd_sc_hd__dfrtp_2
*CAP
1 *4407:A2_N 3.38751e-05
2 *4406:D_N 0.000304068
3 *4907:A 0.000146235
4 *4401:B 0.000283221
5 *4626:Q 0.00035899
6 *571:40 0.000408409
7 *4401:B *4393:B2 0
8 *4401:B *4401:A 1.22676e-05
9 *4401:B *628:38 0
10 *4401:B *628:73 0
11 *4401:B *628:81 9.66106e-05
12 *4406:D_N *4393:A2 0
13 *4406:D_N *4401:A 1.44259e-05
14 *4406:D_N *579:27 4.82919e-05
15 *4406:D_N *579:42 0
16 *4907:A *4393:A1 0
17 *4907:A *4626:RESET_B 9.67972e-05
18 *571:40 *4393:A2 0
19 *571:40 *4393:B2 4.18603e-06
20 *571:40 *4401:A 4.40812e-05
21 *4407:B1 *4406:D_N 7.67267e-05
22 *4408:B *4406:D_N 0.000111196
23 *4409:B1 *4406:D_N 0
24 *4409:B1 *4407:A2_N 4.82863e-05
25 *4409:B2 *4406:D_N 3.31204e-05
26 *4627:D *4406:D_N 0
27 *263:39 *4406:D_N 4.99619e-05
*RES
1 *4626:Q *4401:B 8.72 
2 *4626:Q *4907:A 9.375 
3 *4401:B *571:40 3.38 
4 *571:40 *4406:D_N 9.3 
5 *571:40 *4407:A2_N 4.05 
*END

*D_NET *572 0.00191217
*CONN
*I *4403:B I *D sky130_fd_sc_hd__and2_2
*I *4892:A I *D sky130_fd_sc_hd__dlygate4sd3_1
*I *4405:B I *D sky130_fd_sc_hd__nor2_2
*I *4404:B I *D sky130_fd_sc_hd__nand2_2
*I *4627:Q O *D sky130_fd_sc_hd__dfrtp_2
*CAP
1 *4403:B 9.71884e-06
2 *4892:A 0
3 *4405:B 0.000115594
4 *4404:B 1.85694e-05
5 *4627:Q 0.000130799
6 *572:18 0.000264855
7 *572:12 0.000231676
8 *572:10 0.000241503
9 *4403:B *579:27 4.82919e-05
10 *4404:B *580:29 9.53428e-06
11 *4405:B *4405:A 0.000124895
12 *4405:B *580:29 1.60203e-05
13 *572:10 *4393:B1 4.19967e-05
14 *572:10 *4680:RESET_B 8.65961e-05
15 *572:12 *4393:B1 4.62478e-05
16 *572:12 *4403:A 0.000172838
17 *572:18 *4403:A 5.4003e-05
18 *572:18 *580:29 0.00017153
19 *258:39 *4405:B 3.09179e-05
20 *263:8 *572:10 0
21 *263:8 *572:12 0
22 *263:39 *4403:B 4.82919e-05
23 *536:10 *4405:B 4.82919e-05
24 *537:12 *572:12 0
25 *537:12 *572:18 0
*RES
1 *4627:Q *572:10 5.775 
2 *572:10 *572:12 2.4 
3 *572:12 *572:18 4.775 
4 *572:18 *4404:B 1.96 
5 *572:18 *4405:B 4.135 
6 *572:12 *4892:A 3.6 
7 *572:10 *4403:B 4.05 
*END

*D_NET *573 0.00304406
*CONN
*I *4410:B I *D sky130_fd_sc_hd__and2_2
*I *5001:A I *D sky130_fd_sc_hd__dlygate4sd3_1
*I *4411:B I *D sky130_fd_sc_hd__nor2_2
*I *4628:Q O *D sky130_fd_sc_hd__dfrtp_2
*CAP
1 *4410:B 0.000238989
2 *5001:A 2.11983e-05
3 *4411:B 0.000533315
4 *4628:Q 0
5 *573:21 0.000503165
6 *573:6 0.000776293
7 *4410:B *4809:A 9.64815e-05
8 *4410:B *980:88 0
9 *4411:B *4396:A1 6.52265e-05
10 *4411:B *4732:A 0.000141177
11 *4411:B *613:100 6.2061e-05
12 *4411:B *980:101 0
13 *573:21 *4732:A 2.84137e-05
14 *573:21 *980:88 0
15 *573:21 *980:101 0
16 *4412:A1 *573:21 0
17 *4413:C1 *573:21 0
18 *4414:A *4410:B 0.000175894
19 *4414:A *573:21 0.000140912
20 *4414:B *4410:B 2.8185e-05
21 *4415:A0 *4410:B 2.87867e-05
22 *4418:A *4410:B 0
23 *4419:A2 *4410:B 1.37328e-05
24 *5013:A *4411:B 8.65905e-05
25 *262:47 *5001:A 4.82919e-05
26 *540:8 *4410:B 8.73389e-06
27 *541:8 *573:21 0
28 *543:27 *4410:B 4.66108e-05
*RES
1 *4628:Q *573:6 3.6 
2 *573:6 *4411:B 12.21 
3 *573:6 *573:21 4.695 
4 *573:21 *5001:A 4.05 
5 *573:21 *4410:B 8.7 
*END

*D_NET *574 0.00189049
*CONN
*I *4417:B I *D sky130_fd_sc_hd__xor2_2
*I *4424:A2 I *D sky130_fd_sc_hd__a21boi_2
*I *4396:B2 I *D sky130_fd_sc_hd__a22o_2
*I *4629:Q O *D sky130_fd_sc_hd__dfrtp_2
*CAP
1 *4417:B 3.44174e-05
2 *4424:A2 1.41931e-05
3 *4396:B2 0.000238535
4 *4629:Q 0.000485709
5 *574:26 0.000295784
6 *4396:B2 *4396:B1 5.53249e-06
7 *4396:B2 *4732:A 0
8 *4396:B2 *629:70 9.09197e-05
9 *4417:B *4424:A1 0.000108329
10 *4417:B *4874:A 3.25831e-05
11 *4424:A2 *4424:A1 5.33085e-05
12 *574:26 *629:70 0.000221785
13 *4458:S *4417:B 0.000141599
14 *4458:S *4424:A2 5.16348e-05
15 *541:8 *4396:B2 0.000116158
*RES
1 *4629:Q *4396:B2 10.755 
2 *4629:Q *574:26 6.81 
3 *574:26 *4424:A2 4.215 
4 *574:26 *4417:B 3.635 
*END

*D_NET *575 0.00206813
*CONN
*I *4421:B I *D sky130_fd_sc_hd__and2_2
*I *4422:B I *D sky130_fd_sc_hd__nor2_2
*I *5004:A I *D sky130_fd_sc_hd__dlygate4sd3_1
*I *4630:Q O *D sky130_fd_sc_hd__dfrtp_2
*CAP
1 *4421:B 0.000152786
2 *4422:B 6.63587e-05
3 *5004:A 0.000133802
4 *4630:Q 0.000236843
5 *575:22 0.000322185
6 *4421:B *4397:B1 5.00699e-05
7 *4422:B *4397:B1 9.78734e-05
8 *4422:B *4630:RESET_B 0.000141599
9 *5004:A *4397:B2 2.75229e-05
10 *575:22 *4630:RESET_B 1.0063e-05
11 *4423:B *4421:B 7.44453e-05
12 *4423:B *4422:B 2.4997e-05
13 *4430:A1 *5004:A 0.000312964
14 *4430:A1 *575:22 2.75229e-05
15 *4430:A2 *5004:A 8.65961e-05
16 *549:6 *4421:B 0.00011577
17 *550:8 *4422:B 2.60986e-05
18 *552:18 *4421:B 0.000160635
*RES
1 *4630:Q *5004:A 6.68 
2 *4630:Q *575:22 4.74 
3 *575:22 *4422:B 6.255 
4 *575:22 *4421:B 7.755 
*END

*D_NET *576 0.00168582
*CONN
*I *4887:A I *D sky130_fd_sc_hd__dlygate4sd3_1
*I *4428:B I *D sky130_fd_sc_hd__nor2_2
*I *4427:B I *D sky130_fd_sc_hd__and2_2
*I *4631:Q O *D sky130_fd_sc_hd__dfrtp_2
*CAP
1 *4887:A 0
2 *4428:B 3.21615e-05
3 *4427:B 0.000140213
4 *4631:Q 0.000182008
5 *576:23 8.48481e-05
6 *576:10 0.000374908
7 *4427:B *4732:A 0.000346212
8 *4428:B *4397:A2 0.00012398
9 *4428:B *4397:B2 4.89395e-05
10 *576:10 *4732:A 0.00013126
11 *576:10 *980:109 0
12 *576:23 *4397:A2 0.000109613
13 *554:10 *4427:B 6.21647e-05
14 *562:10 *4427:B 4.95093e-05
*RES
1 *4631:Q *576:10 6.375 
2 *576:10 *4427:B 7.785 
3 *576:10 *576:23 3.14 
4 *576:23 *4428:B 2.74 
5 *576:23 *4887:A 1.6 
*END

*D_NET *577 0.00298598
*CONN
*I *5006:A I *D sky130_fd_sc_hd__dlygate4sd3_1
*I *4434:B I *D sky130_fd_sc_hd__nor2_2
*I *4433:B I *D sky130_fd_sc_hd__and2_2
*I *4632:Q O *D sky130_fd_sc_hd__dfrtp_2
*CAP
1 *5006:A 0.000412761
2 *4434:B 0
3 *4433:B 0.000250496
4 *4632:Q 0.000222937
5 *577:10 0.000468618
6 *577:6 0.00085382
7 *4433:B *4433:A 0.000189791
8 *4433:B *585:37 5.53249e-06
9 *5006:A *4632:RESET_B 4.4133e-05
10 *5006:A *721:35 0.000227055
11 *577:10 *585:37 9.49958e-05
12 *4437:A *5006:A 4.49498e-05
13 *4437:A *577:10 0
14 *4450:S *5006:A 1.88189e-05
15 *4450:S *577:6 6.22066e-05
16 *560:12 *5006:A 0
17 *560:12 *577:10 8.98657e-05
*RES
1 *4632:Q *577:6 4.12 
2 *577:6 *577:10 6.695 
3 *577:10 *4433:B 8.28 
4 *577:10 *4434:B 3.6 
5 *577:6 *5006:A 12.365 
*END

*D_NET *578 0.00172754
*CONN
*I *4868:A I *D sky130_fd_sc_hd__dlygate4sd3_1
*I *4440:B I *D sky130_fd_sc_hd__xor2_2
*I *4633:Q O *D sky130_fd_sc_hd__dfrtp_2
*CAP
1 *4868:A 0.000183264
2 *4440:B 0.00047535
3 *4633:Q 0.000658614
4 *4440:B *4400:B2 1.68162e-05
5 *4440:B *4474:A0 0.000152203
6 *4440:B *4474:A1 7.63125e-05
7 *4440:B *4649:RESET_B 0
8 *4440:B *4665:RESET_B 0
9 *4440:B *4673:D 0
10 *4440:B *4981:A 0
11 *4868:A *4400:B2 2.99026e-05
12 *4441:B *4440:B 0
13 *4906:A *4440:B 7.03276e-05
14 *4931:A *4440:B 6.47516e-05
*RES
1 *4633:Q *4440:B 14.585 
2 *4633:Q *4868:A 6.065 
*END

*D_NET *579 0.00609952
*CONN
*I *4401:A I *D sky130_fd_sc_hd__xor2_2
*I *4407:A1_N I *D sky130_fd_sc_hd__o2bb2a_2
*I *4406:C_N I *D sky130_fd_sc_hd__or4bb_2
*I *5021:A I *D sky130_fd_sc_hd__dlygate4sd3_1
*I *4618:Q O *D sky130_fd_sc_hd__dfrtp_2
*CAP
1 *4401:A 0.000145109
2 *4407:A1_N 5.75231e-05
3 *4406:C_N 1.41956e-05
4 *5021:A 5.63164e-05
5 *4618:Q 3.88497e-05
6 *579:42 0.000419869
7 *579:27 0.00159373
8 *579:10 0.00145746
9 *4401:A *4393:A1 8.65905e-05
10 *4401:A *4393:B2 0
11 *4401:A *628:38 0
12 *4401:A *710:16 0
13 *4406:C_N *4731:A 1.85674e-05
14 *5021:A *3979:B 3.70572e-05
15 *579:10 *3979:A 3.86607e-05
16 *579:27 *3980:A1 0.000234674
17 *579:27 *4618:RESET_B 0.000156091
18 *579:27 *4680:RESET_B 0.000166561
19 *579:27 *5008:A 2.30292e-05
20 *579:27 *980:54 0.000149591
21 *579:27 *1053:20 8.65905e-05
22 *579:42 *4627:RESET_B 9.24127e-05
23 *579:42 *4731:A 1.70733e-05
24 *579:42 *710:16 0
25 *4401:B *4401:A 1.22676e-05
26 *4403:B *579:27 4.82919e-05
27 *4406:D_N *4401:A 1.44259e-05
28 *4406:D_N *579:27 4.82919e-05
29 *4406:D_N *579:42 0
30 *4408:A *4407:A1_N 0.000126903
31 *4408:B *579:42 2.42236e-05
32 *4409:B1 *4407:A1_N 5.88946e-05
33 *4409:B2 *4401:A 2.07184e-05
34 *4409:B2 *4407:A1_N 4.66108e-05
35 *4409:B2 *579:42 0.000114492
36 *4627:D *579:42 3.18137e-05
37 *254:14 *579:10 2.66935e-05
38 *259:29 *4401:A 3.45588e-05
39 *261:6 *579:27 4.40325e-06
40 *263:39 *579:27 0.000333332
41 *263:39 *579:42 2.7441e-05
42 *534:6 *579:27 0.000192125
43 *571:40 *4401:A 4.40812e-05
*RES
1 *4618:Q *579:10 6.47 
2 *579:10 *5021:A 2.77 
3 *579:10 *579:27 21.27 
4 *579:27 *4406:C_N 1.96 
5 *579:27 *579:42 6.575 
6 *579:42 *4407:A1_N 5.3175 
7 *579:42 *4401:A 6.795 
*END

*D_NET *580 0.00622852
*CONN
*I *4403:A I *D sky130_fd_sc_hd__and2_2
*I *4405:A I *D sky130_fd_sc_hd__nor2_2
*I *4404:A I *D sky130_fd_sc_hd__nand2_2
*I *5020:A I *D sky130_fd_sc_hd__dlygate4sd3_1
*I *4619:Q O *D sky130_fd_sc_hd__dfrtp_2
*CAP
1 *4403:A 0.000115818
2 *4405:A 2.58123e-05
3 *4404:A 0
4 *5020:A 0.000221297
5 *4619:Q 0.000195083
6 *580:29 0.000162809
7 *580:21 0.00180617
8 *580:6 0.00196973
9 *5020:A *4620:RESET_B 0
10 *580:21 *3981:A 9.79963e-05
11 *580:21 *3981:B 3.00381e-05
12 *580:21 *4619:CLK 0.000119631
13 *580:21 *4620:RESET_B 0.00015737
14 *580:21 *836:39 8.35727e-05
15 *3982:B1_N *580:21 0.000174577
16 *4151:A0 *5020:A 0
17 *4400:A2 *580:21 7.81632e-05
18 *4404:B *580:29 9.53428e-06
19 *4405:B *4405:A 0.000124895
20 *4405:B *580:29 1.60203e-05
21 *4458:S *4403:A 0
22 *4458:S *580:29 0
23 *4742:A *580:6 0.000111293
24 *4742:A *580:21 6.44715e-05
25 *258:39 *4405:A 6.26945e-05
26 *258:39 *580:29 0.000203178
27 *537:12 *580:29 0
28 *572:12 *4403:A 0.000172838
29 *572:18 *4403:A 5.4003e-05
30 *572:18 *580:29 0.00017153
*RES
1 *4619:Q *580:6 4.12 
2 *580:6 *5020:A 9.02 
3 *580:6 *580:21 21.425 
4 *580:21 *580:29 5.825 
5 *580:29 *4404:A 1.6 
6 *580:29 *4405:A 2.74 
7 *580:21 *4403:A 6.255 
*END

*D_NET *581 0.00529915
*CONN
*I *4410:A I *D sky130_fd_sc_hd__and2_2
*I *4411:A I *D sky130_fd_sc_hd__nor2_2
*I *5009:A I *D sky130_fd_sc_hd__dlygate4sd3_1
*I *4620:Q O *D sky130_fd_sc_hd__dfrtp_2
*CAP
1 *4410:A 0.000262064
2 *4411:A 0.0003098
3 *5009:A 0.000173448
4 *4620:Q 0.000258855
5 *581:21 0.00125768
6 *581:6 0.00111812
7 *4410:A *5019:A 2.16389e-05
8 *4411:A *4629:RESET_B 0.000139238
9 *4411:A *5019:A 2.24336e-05
10 *4411:A *613:100 4.82863e-05
11 *4411:A *615:116 0
12 *5009:A *4424:A1 0
13 *5009:A *4874:A 0
14 *581:6 *4227:A1 0.000386221
15 *581:21 *4227:A1 0.000223804
16 *581:21 *4416:A 6.97352e-05
17 *581:21 *4874:A 3.1835e-05
18 *4413:C1 *4410:A 8.04163e-05
19 *4413:C1 *4411:A 5.18691e-05
20 *4416:B *5009:A 1.01661e-05
21 *4419:A2 *4410:A 8.65961e-05
22 *4420:B1 *5009:A 5.16348e-05
23 *4424:B1_N *4411:A 0
24 *4466:S *5009:A 0.000409125
25 *535:8 *4410:A 0
26 *540:8 *4410:A 7.35813e-05
27 *541:8 *4411:A 0.000196414
28 *543:27 *4410:A 1.61831e-05
29 *546:8 *4410:A 0
30 *546:8 *4411:A 0
31 *552:18 *4411:A 0
*RES
1 *4620:Q *581:6 5.155 
2 *581:6 *5009:A 10.295 
3 *581:6 *581:21 10.04 
4 *581:21 *4411:A 10.785 
5 *581:21 *4410:A 8.715 
*END

*D_NET *582 0.00150057
*CONN
*I *4417:A I *D sky130_fd_sc_hd__xor2_2
*I *4874:A I *D sky130_fd_sc_hd__dlygate4sd3_1
*I *4424:A1 I *D sky130_fd_sc_hd__a21boi_2
*I *4621:Q O *D sky130_fd_sc_hd__dfrtp_2
*CAP
1 *4417:A 0
2 *4874:A 0.000114634
3 *4424:A1 0.000149921
4 *4621:Q 0.000255811
5 *582:10 0.000264555
6 *582:8 0.000255811
7 *4424:A1 *629:70 5.30732e-05
8 *4874:A *4416:A 8.49205e-05
9 *4416:B *4874:A 0
10 *4417:B *4424:A1 0.000108329
11 *4417:B *4874:A 3.25831e-05
12 *4424:A2 *4424:A1 5.33085e-05
13 *4458:S *4424:A1 1.15688e-05
14 *4458:S *4874:A 8.42161e-05
15 *5009:A *4424:A1 0
16 *5009:A *4874:A 0
17 *581:21 *4874:A 3.1835e-05
*RES
1 *4621:Q *582:8 5.17 
2 *582:8 *582:10 2 
3 *582:10 *4424:A1 6.54 
4 *582:10 *4874:A 6.54 
5 *582:8 *4417:A 1.6 
*END

*D_NET *583 0.00175516
*CONN
*I *4422:A I *D sky130_fd_sc_hd__nor2_2
*I *4421:A I *D sky130_fd_sc_hd__and2_2
*I *5015:A I *D sky130_fd_sc_hd__dlygate4sd3_1
*I *4622:Q O *D sky130_fd_sc_hd__dfrtp_2
*CAP
1 *4422:A 0.000344565
2 *4421:A 0.000199932
3 *5015:A 0
4 *4622:Q 5.25478e-05
5 *583:14 0.000417904
6 *583:8 0.000615085
7 *4422:A *4630:D 5.05437e-05
8 *583:14 *4622:CLK 7.45794e-05
9 *583:14 *4630:D 0
10 *4458:S *583:14 0
11 *4466:S *583:14 0
*RES
1 *4622:Q *583:8 2.41 
2 *583:8 *583:14 7.93 
3 *583:14 *5015:A 1.6 
4 *583:14 *4421:A 4.465 
5 *583:8 *4422:A 6.88 
*END

*D_NET *584 0.00273092
*CONN
*I *4428:A I *D sky130_fd_sc_hd__nor2_2
*I *4427:A I *D sky130_fd_sc_hd__and2_2
*I *5016:A I *D sky130_fd_sc_hd__dlygate4sd3_1
*I *4623:Q O *D sky130_fd_sc_hd__dfrtp_2
*CAP
1 *4428:A 6.14785e-05
2 *4427:A 0.000199995
3 *5016:A 0.000188446
4 *4623:Q 0
5 *584:21 0.000779674
6 *584:4 0.000706647
7 *4427:A *4397:A1 0.000233604
8 *4427:A *4630:RESET_B 0.000178946
9 *4427:A *5040:A 4.80058e-05
10 *4428:A *4630:RESET_B 0.00011272
11 *584:21 *4623:CLK 0.0002214
*RES
1 *4623:Q *584:4 1.6 
2 *584:4 *5016:A 8.465 
3 *584:4 *584:21 8.66 
4 *584:21 *4427:A 8.43 
5 *584:21 *4428:A 4.98 
*END

*D_NET *585 0.0058694
*CONN
*I *4434:A I *D sky130_fd_sc_hd__nor2_2
*I *4433:A I *D sky130_fd_sc_hd__and2_2
*I *4860:A I *D sky130_fd_sc_hd__dlygate4sd3_1
*I *4624:Q O *D sky130_fd_sc_hd__dfrtp_2
*CAP
1 *4434:A 0
2 *4433:A 0.000150709
3 *4860:A 0.000276371
4 *4624:Q 0.000913952
5 *585:37 0.000649296
6 *585:10 0.00168891
7 *4433:A *4792:A 5.53249e-06
8 *4860:A *4356:A1 0.000337219
9 *4860:A *4800:A 0.000129891
10 *4860:A *4905:A 0
11 *585:10 *4673:RESET_B 8.92513e-05
12 *585:10 *617:91 4.80285e-05
13 *585:37 *4356:A1 0.000141599
14 *585:37 *4450:A0 0
15 *585:37 *4641:RESET_B 4.1235e-05
16 *585:37 *4657:RESET_B 0.000125651
17 *585:37 *4792:A 3.48742e-05
18 *4433:B *4433:A 0.000189791
19 *4433:B *585:37 5.53249e-06
20 *4437:B *585:37 8.65961e-05
21 *4441:A *4860:A 0.000103778
22 *4441:A *585:10 0.000180988
23 *4441:A *585:37 4.41506e-05
24 *4441:B *585:10 0.000360192
25 *4442:A0 *4860:A 3.09233e-05
26 *559:10 *4433:A 0
27 *560:12 *585:37 0.000139933
28 *577:10 *585:37 9.49958e-05
*RES
1 *4624:Q *585:10 14.59 
2 *585:10 *4860:A 12.56 
3 *585:10 *585:37 16.2 
4 *585:37 *4433:A 6.795 
5 *585:37 *4434:A 3.6 
*END

*D_NET *586 0.00207652
*CONN
*I *5018:A I *D sky130_fd_sc_hd__dlygate4sd3_1
*I *4440:A I *D sky130_fd_sc_hd__xor2_2
*I *4625:Q O *D sky130_fd_sc_hd__dfrtp_2
*CAP
1 *5018:A 0.000202744
2 *4440:A 0.000176613
3 *4625:Q 4.78063e-05
4 *586:8 0.000427164
5 *4440:A *4356:A1 0.000234786
6 *4440:A *722:42 0.000237301
7 *5018:A *4624:RESET_B 4.91189e-05
8 *4356:S *4440:A 0.000231557
9 *4356:S *5018:A 0.000354785
10 *4474:S *4440:A 0
11 *4474:S *5018:A 0
12 *261:55 *5018:A 0.000114649
*RES
1 *4625:Q *586:8 4.05 
2 *586:8 *4440:A 9.81 
3 *586:8 *5018:A 9.06 
*END

*D_NET *587 0.000426081
*CONN
*I *4873:A I *D sky130_fd_sc_hd__dlygate4sd3_1
*I *4634:Q O *D sky130_fd_sc_hd__dfrtp_2
*CAP
1 *4873:A 0.000165012
2 *4634:Q 0.000165012
3 *4873:A *4634:RESET_B 4.80285e-05
4 *4873:A *817:8 4.80285e-05
*RES
1 *4634:Q *4873:A 6.065 
*END

*D_NET *588 0.00133818
*CONN
*I *4865:A I *D sky130_fd_sc_hd__dlygate4sd3_1
*I *4635:Q O *D sky130_fd_sc_hd__dfrtp_2
*CAP
1 *4865:A 0.00025343
2 *4635:Q 0.00025343
3 *4865:A *4409:A1 2.49909e-05
4 *4865:A *4444:A0 0.00011852
5 *4865:A *628:10 8.65961e-05
6 *4865:A *628:110 0.00041967
7 *4865:A *720:101 0.000120186
8 *4865:A *778:12 4.80285e-05
9 *4865:A *808:6 1.33285e-05
*RES
1 *4635:Q *4865:A 13.86 
*END

*D_NET *589 0.000941267
*CONN
*I *4891:A I *D sky130_fd_sc_hd__dlygate4sd3_1
*I *4636:Q O *D sky130_fd_sc_hd__dfrtp_2
*CAP
1 *4891:A 0.000257233
2 *4636:Q 0.000257233
3 *4891:A *4415:A1 0.000308969
4 *4891:A *4695:A 0
5 *4891:A *837:10 0.000117832
6 *259:56 *4891:A 0
7 *262:105 *4891:A 0
*RES
1 *4636:Q *4891:A 12.66 
*END

*D_NET *590 0.00265227
*CONN
*I *4809:A I *D sky130_fd_sc_hd__dlygate4sd3_1
*I *5019:A I *D sky130_fd_sc_hd__dlygate4sd3_1
*I *4637:Q O *D sky130_fd_sc_hd__dfrtp_2
*CAP
1 *4809:A 0.00065687
2 *5019:A 0.000166208
3 *4637:Q 0.000823078
4 *4410:A *5019:A 2.16389e-05
5 *4410:B *4809:A 9.64815e-05
6 *4411:A *5019:A 2.24336e-05
7 *4413:A2 *4809:A 2.05056e-05
8 *4413:B1 *4809:A 2.96426e-05
9 *4413:C1 *4809:A 2.75229e-05
10 *4414:A *4809:A 0.000162776
11 *4414:B *4809:A 6.38806e-05
12 *262:47 *4809:A 0.000124456
13 *262:47 *5019:A 8.88631e-05
14 *540:30 *4809:A 7.06865e-05
15 *543:10 *4809:A 0.000130536
16 *543:27 *4809:A 3.05373e-05
17 *546:8 *5019:A 0.000116151
*RES
1 *4637:Q *5019:A 10.065 
2 *4637:Q *4809:A 17.325 
*END

*D_NET *591 0.000717192
*CONN
*I *4838:A I *D sky130_fd_sc_hd__dlygate4sd3_1
*I *4638:Q O *D sky130_fd_sc_hd__dfrtp_2
*CAP
1 *4838:A 0.000157214
2 *4638:Q 0.000157214
3 *4838:A *4398:A1 0.000275553
4 *4838:A *4695:A 4.61744e-05
5 *4838:A *4861:A 7.00889e-06
6 *4838:A *777:8 7.4027e-05
7 *259:56 *4838:A 0
*RES
1 *4638:Q *4838:A 11.1 
*END

*D_NET *592 0.000654859
*CONN
*I *4881:A I *D sky130_fd_sc_hd__dlygate4sd3_1
*I *4639:Q O *D sky130_fd_sc_hd__dfrtp_2
*CAP
1 *4881:A 0.000216487
2 *4639:Q 0.000216487
3 *4881:A *4639:RESET_B 9.03002e-05
4 *4881:A *826:10 0.000131584
*RES
1 *4639:Q *4881:A 7.445 
*END

*D_NET *593 0.000440157
*CONN
*I *4828:A I *D sky130_fd_sc_hd__dlygate4sd3_1
*I *4640:Q O *D sky130_fd_sc_hd__dfrtp_2
*CAP
1 *4828:A 9.69264e-05
2 *4640:Q 9.69264e-05
3 *4828:A *4449:A0 2.87867e-05
4 *4828:A *4632:RESET_B 6.97202e-05
5 *4449:S *4828:A 5.20968e-05
6 *4450:S *4828:A 8.49205e-05
7 *259:60 *4828:A 1.07797e-05
*RES
1 *4640:Q *4828:A 9.72 
*END

*D_NET *594 0.000470827
*CONN
*I *4792:A I *D sky130_fd_sc_hd__dlygate4sd3_1
*I *4641:Q O *D sky130_fd_sc_hd__dfrtp_2
*CAP
1 *4792:A 0.000153762
2 *4641:Q 0.000153762
3 *4433:A *4792:A 5.53249e-06
4 *4437:B *4792:A 5.05437e-05
5 *559:10 *4792:A 0
6 *560:12 *4792:A 7.23533e-05
7 *585:37 *4792:A 3.48742e-05
*RES
1 *4641:Q *4792:A 9.72 
*END

*D_NET *595 0.00106362
*CONN
*I *4859:A I *D sky130_fd_sc_hd__dlygate4sd3_1
*I *4642:Q O *D sky130_fd_sc_hd__dfrtp_2
*CAP
1 *4859:A 0.000351348
2 *4642:Q 0.000351348
3 *4859:A *4451:A0 0.000295393
4 *4859:A *4451:A1 6.55328e-05
5 *4650:D *4859:A 0
6 *260:55 *4859:A 0
*RES
1 *4642:Q *4859:A 13.8 
*END

*D_NET *596 0.00040728
*CONN
*I *4839:A I *D sky130_fd_sc_hd__dlygate4sd3_1
*I *4643:Q O *D sky130_fd_sc_hd__dfrtp_2
*CAP
1 *4839:A 0.00014119
2 *4643:Q 0.00014119
3 *4839:A *628:125 0.0001249
4 *4839:A *717:73 0
5 *4451:S *4839:A 0
*RES
1 *4643:Q *4839:A 9.72 
*END

*D_NET *597 0.00127342
*CONN
*I *4857:A I *D sky130_fd_sc_hd__dlygate4sd3_1
*I *4644:Q O *D sky130_fd_sc_hd__dfrtp_2
*CAP
1 *4857:A 0.000381248
2 *4644:Q 0.000381248
3 *4857:A *4644:RESET_B 0
4 *4857:A *5012:A 0.00018471
5 *4857:A *717:47 0.000163019
6 *4453:S *4857:A 0.000163199
7 *260:72 *4857:A 0
8 *260:80 *4857:A 0
9 *263:45 *4857:A 0
10 *263:51 *4857:A 0
*RES
1 *4644:Q *4857:A 14.91 
*END

*D_NET *598 0.00229413
*CONN
*I *4446:A1 I *D sky130_fd_sc_hd__mux2_1
*I *4861:A I *D sky130_fd_sc_hd__dlygate4sd3_1
*I *4645:Q O *D sky130_fd_sc_hd__dfrtp_2
*CAP
1 *4446:A1 0.00022151
2 *4861:A 0.000330285
3 *4645:Q 0
4 *598:6 0.000551795
5 *4446:A1 *4653:CLK 1.94805e-05
6 *4446:A1 *629:25 0.000160635
7 *4446:A1 *629:33 6.95335e-05
8 *4446:A1 *629:35 4.62396e-05
9 *4861:A *4398:A1 4.58166e-05
10 *4861:A *4454:A0 0
11 *4644:D *4446:A1 0.000149759
12 *4644:D *4861:A 0.000120186
13 *4653:D *4446:A1 5.53249e-06
14 *4653:D *4861:A 6.74079e-05
15 *4838:A *4861:A 7.00889e-06
16 *259:48 *4446:A1 1.70935e-05
17 *259:54 *4446:A1 0.000110315
18 *259:54 *4861:A 7.78102e-05
19 *259:56 *4861:A 0.000293726
20 *263:45 *4446:A1 0
21 *263:45 *4861:A 0
22 *263:51 *4861:A 0
*RES
1 *4645:Q *598:6 3.6 
2 *598:6 *4861:A 11.16 
3 *598:6 *4446:A1 9.525 
*END

*D_NET *599 0.000217597
*CONN
*I *4824:A I *D sky130_fd_sc_hd__dlygate4sd3_1
*I *4646:Q O *D sky130_fd_sc_hd__dfrtp_2
*CAP
1 *4824:A 3.70596e-05
2 *4646:Q 3.70596e-05
3 *4824:A *4398:A1 4.91189e-05
4 *4824:A *762:12 7.4027e-05
5 *263:51 *4824:A 2.03321e-05
*RES
1 *4646:Q *4824:A 8.58 
*END

*D_NET *600 0.00057698
*CONN
*I *4862:A I *D sky130_fd_sc_hd__dlygate4sd3_1
*I *4647:Q O *D sky130_fd_sc_hd__dfrtp_2
*CAP
1 *4862:A 0.000221715
2 *4647:Q 0.000221715
3 *4862:A *714:10 0
4 *4457:S *4862:A 6.97634e-05
5 *4655:D *4862:A 4.58691e-05
6 *263:61 *4862:A 1.79174e-05
*RES
1 *4647:Q *4862:A 11.07 
*END

*D_NET *601 0.00250299
*CONN
*I *4449:A1 I *D sky130_fd_sc_hd__mux2_1
*I *4890:A I *D sky130_fd_sc_hd__dlygate4sd3_1
*I *4648:Q O *D sky130_fd_sc_hd__dfrtp_2
*CAP
1 *4449:A1 0.000123426
2 *4890:A 0.000396522
3 *4648:Q 0.000320546
4 *601:12 0.000840494
5 *4449:A1 *4449:A0 2.11084e-05
6 *4449:A1 *4656:CLK 3.72916e-05
7 *4449:A1 *616:111 1.34503e-05
8 *4449:A1 *722:32 0.000359062
9 *4890:A *4457:A0 0
10 *4890:A *4648:D 0.000145184
11 *601:12 *4457:A0 0
12 *601:12 *4640:RESET_B 4.99619e-05
13 *601:12 *4648:RESET_B 7.07794e-05
14 *601:12 *616:128 3.20961e-05
15 *4449:S *601:12 0
16 *4656:D *601:12 9.30717e-05
17 *4829:A *4890:A 0
*RES
1 *4648:Q *601:12 8.3325 
2 *601:12 *4890:A 10.2975 
3 *601:12 *4449:A1 7.3875 
*END

*D_NET *602 0.00196423
*CONN
*I *4450:A1 I *D sky130_fd_sc_hd__mux2_1
*I *4800:A I *D sky130_fd_sc_hd__dlygate4sd3_1
*I *4649:Q O *D sky130_fd_sc_hd__dfrtp_2
*CAP
1 *4450:A1 0.000258922
2 *4800:A 0.000273452
3 *4649:Q 0.000282703
4 *602:6 0.000815077
5 *4800:A *4397:A1 4.90227e-05
6 *4800:A *4905:A 0
7 *602:6 *4649:RESET_B 0.000116508
8 *4441:A *4450:A1 3.86529e-05
9 *4860:A *4800:A 0.000129891
10 *559:10 *4450:A1 0
*RES
1 *4649:Q *602:6 4.81 
2 *602:6 *4800:A 11.09 
3 *602:6 *4450:A1 8.645 
*END

*D_NET *603 0.00128498
*CONN
*I *4830:A I *D sky130_fd_sc_hd__dlygate4sd3_1
*I *4650:Q O *D sky130_fd_sc_hd__dfrtp_2
*CAP
1 *4830:A 0.000197459
2 *4650:Q 0.000197459
3 *4830:A *4459:A1 0.000130065
4 *4830:A *4467:A0 0.000134314
5 *4830:A *4658:D 4.94404e-05
6 *4830:A *5010:A 3.86607e-05
7 *4830:A *717:73 7.96996e-05
8 *4830:A *768:6 0.000162311
9 *4831:A *4830:A 2.16917e-05
10 *260:68 *4830:A 0.000273878
*RES
1 *4650:Q *4830:A 14.175 
*END

*D_NET *604 0.00018236
*CONN
*I *4820:A I *D sky130_fd_sc_hd__dlygate4sd3_1
*I *4651:Q O *D sky130_fd_sc_hd__dfrtp_2
*CAP
1 *4820:A 5.43937e-05
2 *4651:Q 5.43937e-05
3 *4820:A *4651:RESET_B 7.35729e-05
*RES
1 *4651:Q *4820:A 4.34 
*END

*D_NET *605 0.00115683
*CONN
*I *4812:A I *D sky130_fd_sc_hd__dlygate4sd3_1
*I *4652:Q O *D sky130_fd_sc_hd__dfrtp_2
*CAP
1 *4812:A 0.000280809
2 *4652:Q 0.000280809
3 *4812:A *4453:A1 0.000183043
4 *4812:A *4644:RESET_B 2.75229e-05
5 *4812:A *4660:D 0
6 *4812:A *629:143 1.56428e-05
7 *4812:A *717:10 0
8 *4812:A *749:8 0.000143266
9 *258:39 *4812:A 0.000201508
10 *260:70 *4812:A 2.42236e-05
*RES
1 *4652:Q *4812:A 13.665 
*END

*D_NET *606 0.00156168
*CONN
*I *4826:A I *D sky130_fd_sc_hd__dlygate4sd3_1
*I *4653:Q O *D sky130_fd_sc_hd__dfrtp_2
*CAP
1 *4826:A 0.000473436
2 *4653:Q 0.000473436
3 *4826:A *4453:A0 0
4 *4826:A *4470:A0 0.000123189
5 *4826:A *4661:CLK 7.76343e-05
6 *4826:A *4669:CLK 0
7 *4826:A *4669:D 6.55328e-05
8 *4826:A *4669:RESET_B 2.91561e-06
9 *4826:A *629:158 0
10 *4826:A *717:33 0.000133958
11 *4826:A *721:100 9.79559e-05
12 *4827:A *4826:A 0.00011362
*RES
1 *4653:Q *4826:A 17.46 
*END

*D_NET *607 0.00217697
*CONN
*I *4897:A I *D sky130_fd_sc_hd__dlygate4sd3_1
*I *4455:A1 I *D sky130_fd_sc_hd__mux2_1
*I *4654:Q O *D sky130_fd_sc_hd__dfrtp_2
*CAP
1 *4897:A 0.000146699
2 *4455:A1 0.00060642
3 *4654:Q 0
4 *607:6 0.000753119
5 *4455:A1 *4447:A1 4.99619e-05
6 *4455:A1 *4471:A0 0
7 *4455:A1 *4662:CLK 0.000246778
8 *4455:A1 *4662:D 2.96334e-05
9 *4455:A1 *1124:12 1.83463e-05
10 *4897:A *4471:A0 0
11 *4897:A *4670:CLK 8.65961e-05
12 *4897:A *4670:D 0
13 *260:93 *4455:A1 3.86607e-05
14 *260:93 *4897:A 0.000127181
15 *263:51 *4455:A1 7.35729e-05
*RES
1 *4654:Q *607:6 3.6 
2 *607:6 *4455:A1 12.285 
3 *607:6 *4897:A 7.05 
*END

*D_NET *608 0.00128782
*CONN
*I *4840:A I *D sky130_fd_sc_hd__dlygate4sd3_1
*I *4655:Q O *D sky130_fd_sc_hd__dfrtp_2
*CAP
1 *4840:A 0.00044341
2 *4655:Q 0.00044341
3 *4840:A *4671:D 0.000113222
4 *4840:A *4672:CLK 9.27991e-05
5 *4840:A *4672:D 4.77807e-05
6 *4840:A *5042:A 0.000122202
7 *4840:A *721:27 2.49909e-05
*RES
1 *4655:Q *4840:A 13.62 
*END

*D_NET *609 0.000438222
*CONN
*I *4863:A I *D sky130_fd_sc_hd__dlygate4sd3_1
*I *4656:Q O *D sky130_fd_sc_hd__dfrtp_2
*CAP
1 *4863:A 0.000106373
2 *4656:Q 0.000106373
3 *4863:A *4656:RESET_B 5.83121e-06
4 *4863:A *722:32 0.000188727
5 *4863:A *806:10 3.09179e-05
*RES
1 *4656:Q *4863:A 6.065 
*END

*D_NET *610 0.00168251
*CONN
*I *4905:A I *D sky130_fd_sc_hd__dlygate4sd3_1
*I *4458:A1 I *D sky130_fd_sc_hd__mux2_1
*I *4657:Q O *D sky130_fd_sc_hd__dfrtp_2
*CAP
1 *4905:A 0.000248594
2 *4458:A1 0.000214683
3 *4657:Q 3.58965e-05
4 *610:8 0.000499173
5 *4458:A1 *4356:A1 0.000237249
6 *4458:A1 *4458:A0 4.99619e-05
7 *610:8 *4641:CLK 2.75145e-05
8 *4442:A0 *4458:A1 0
9 *4442:A0 *4905:A 0
10 *4458:S *4458:A1 0.000113988
11 *4458:S *4905:A 0.000255451
12 *4641:D *4458:A1 0
13 *4800:A *4905:A 0
14 *4860:A *4905:A 0
*RES
1 *4657:Q *610:8 4.05 
2 *610:8 *4458:A1 8.175 
3 *610:8 *4905:A 9.06 
*END

*D_NET *611 0.0136964
*CONN
*I *4692:A I *D sky130_fd_sc_hd__clkbuf_16
*I *4691:A I *D sky130_fd_sc_hd__clkbuf_16
*I *4690:X O *D sky130_fd_sc_hd__clkbuf_16
*CAP
1 *4692:A 0.000105563
2 *4691:A 4.40053e-05
3 *4690:X 0
4 *611:49 0.00243282
5 *611:36 0.00245706
6 *611:23 0.0024143
7 *611:6 0.00248996
8 *611:4 0.000249466
9 *4691:A *4704:A 4.80285e-05
10 *611:6 *4750:A 4.62883e-05
11 *611:6 *1005:46 6.33103e-05
12 *611:23 *4054:A1 3.33983e-05
13 *611:23 *4111:A0 2.77283e-05
14 *611:23 *4365:B1 0.000191495
15 *611:23 *4365:B2 1.35051e-05
16 *611:23 *4750:A 0.000269719
17 *611:23 *4991:A 4.76239e-05
18 *611:23 *986:59 0.000420622
19 *611:36 *1005:46 0.000132111
20 *611:49 *4610:RESET_B 0.000510493
21 *611:49 *969:46 0
22 *611:49 *1005:46 6.35602e-05
23 *4026:S *611:23 1.00941e-05
24 *4327:B1 *611:49 4.49585e-05
25 *4327:B2 *611:49 5.83121e-06
26 *4365:A2 *611:23 6.8725e-06
27 *4690:A *611:23 2.26381e-05
28 *3:30 *611:23 8.86509e-05
29 *3:34 *611:23 5.66501e-05
30 *255:18 *611:49 0.000263566
31 *274:22 *611:23 8.9386e-05
32 *280:81 *611:23 0.000505119
33 *296:39 *611:49 2.97473e-05
34 *349:16 *611:23 0.000163262
35 *360:16 *611:23 0.000190602
36 *429:22 *611:49 0.000157995
*RES
1 *4690:X *611:4 1.6 
2 *611:4 *611:6 1.87125 
3 *611:6 *611:23 28.5618 
4 *611:23 *4691:A 4.395 
5 *611:4 *611:36 2.22 
6 *611:36 *611:49 38.98 
7 *611:49 *4692:A 3.085 
*END

*D_NET *612 0.0406657
*CONN
*I *4704:A I *D sky130_fd_sc_hd__clkbuf_8
*I *4703:A I *D sky130_fd_sc_hd__clkbuf_8
*I *4702:A I *D sky130_fd_sc_hd__clkbuf_8
*I *4701:A I *D sky130_fd_sc_hd__clkbuf_8
*I *4700:A I *D sky130_fd_sc_hd__clkbuf_8
*I *4698:A I *D sky130_fd_sc_hd__clkbuf_8
*I *4693:A I *D sky130_fd_sc_hd__clkbuf_8
*I *4699:A I *D sky130_fd_sc_hd__clkbuf_8
*I *4691:X O *D sky130_fd_sc_hd__clkbuf_16
*CAP
1 *4704:A 0.0018378
2 *4703:A 0.000290448
3 *4702:A 0.000744787
4 *4701:A 0
5 *4700:A 1.72691e-05
6 *4698:A 0
7 *4693:A 0.000672226
8 *4699:A 0.000125011
9 *4691:X 0.00196356
10 *612:83 0.00316007
11 *612:68 0.00239171
12 *612:57 0.000513597
13 *612:20 0.00376392
14 *612:12 0.00358938
15 *612:10 0.00097791
16 *4693:A *4125:A1 1.88656e-05
17 *4693:A *4270:D_N 0.000156284
18 *4693:A *4273:B1 0.000320951
19 *4693:A *4746:A 4.89395e-05
20 *4693:A *928:10 0.00042429
21 *4693:A *991:12 0.000113419
22 *4693:A *994:69 7.20926e-05
23 *4693:A *1008:27 0.000400525
24 *4693:A *1015:40 0.00112224
25 *4693:A *1023:71 0.000602303
26 *4699:A *4125:A1 0.000321802
27 *4699:A *4977:A 1.26548e-05
28 *4699:A *991:12 1.73593e-05
29 *4699:A *991:14 2.03578e-05
30 *4699:A *991:18 0.000106393
31 *4700:A *987:84 5.30673e-05
32 *4702:A *4123:S 0.000144203
33 *4702:A *4495:CLK 7.1301e-06
34 *4702:A *4551:CLK 1.52184e-05
35 *4702:A *4764:A 7.47215e-05
36 *4702:A *623:6 0.00026602
37 *4702:A *623:105 0.000313852
38 *4702:A *623:142 0.0013839
39 *4702:A *994:50 0.000575183
40 *4703:A *4284:A_N 0.000310417
41 *4703:A *4495:CLK 2.68721e-05
42 *4703:A *4764:A 8.59365e-05
43 *4703:A *1018:107 0.000568504
44 *4703:A *1022:24 0
45 *4703:A *1025:68 0.000149071
46 *4703:A *1028:18 1.52184e-05
47 *4703:A *1028:20 5.99925e-05
48 *4704:A *4010:A0 0.000120186
49 *4704:A *4039:A1 0.000137578
50 *4704:A *4048:A0 7.21296e-06
51 *4704:A *4048:A1 0.000188209
52 *4704:A *4054:A1 0.000316421
53 *4704:A *4153:B2 0.000464508
54 *4704:A *4155:A1 0.000224767
55 *4704:A *4507:SET_B 0.000132137
56 *4704:A *4531:SET_B 0.000111054
57 *4704:A *4788:A 0
58 *4704:A *4916:A 0.000154144
59 *4704:A *5000:A 4.82919e-05
60 *4704:A *5055:A 0.000124895
61 *4704:A *625:10 0.000236355
62 *4704:A *625:20 0.000523142
63 *4704:A *947:10 0
64 *4704:A *947:18 0
65 *4704:A *984:46 0.000105168
66 *4704:A *1048:16 7.10578e-05
67 *4704:A *1049:27 0
68 *612:10 *986:42 4.82919e-05
69 *612:12 *4002:A0 3.89366e-05
70 *612:12 *4177:A2 0
71 *612:12 *4516:SET_B 0
72 *612:12 *1045:53 0
73 *612:20 *1009:98 0.000209632
74 *612:20 *1016:39 0.000110612
75 *612:57 *4710:A 8.65905e-05
76 *612:57 *621:10 0.000198939
77 *612:57 *987:84 0.00056563
78 *612:68 *4811:A 0
79 *612:68 *622:10 0
80 *612:68 *958:35 0
81 *612:83 *622:10 0
82 *612:83 *623:142 2.0514e-05
83 *612:83 *667:14 0.000139478
84 *4025:S *612:20 0.000526915
85 *4032:S *612:20 0.00128521
86 *4035:S *612:20 0.000373264
87 *4133:B1 *612:10 6.44676e-05
88 *4153:B1 *4704:A 1.07797e-05
89 *4173:A2 *612:12 3.63701e-06
90 *4177:B1 *612:12 0.000305339
91 *4177:B1 *612:20 1.92979e-05
92 *4178:A2 *612:12 0.000372741
93 *4178:A3 *612:12 0.000987991
94 *4237:A1 *612:68 0
95 *4272:A2 *4693:A 0.000154987
96 *4286:B2 *612:83 2.75229e-05
97 *4500:D *612:12 7.59867e-05
98 *4511:D *4703:A 0
99 *4523:D *4704:A 4.77701e-05
100 *4527:D *4702:A 3.09164e-05
101 *4527:D *4703:A 7.23602e-05
102 *4527:D *612:83 0.000160635
103 *4538:D *612:83 0
104 *4691:A *4704:A 4.80285e-05
105 *5089:A *4693:A 1.92979e-05
106 *5089:A *612:20 0
107 *5092:A *612:10 8.53113e-06
108 *5092:A *612:12 0.000195316
109 *267:46 *4700:A 5.05437e-05
110 *267:46 *612:57 0.000474803
111 *268:81 *4704:A 0.000142011
112 *268:87 *4704:A 4.55393e-05
113 *272:57 *612:83 0.000239967
114 *274:74 *612:57 0.000386221
115 *274:85 *612:57 3.74161e-05
116 *275:36 *612:68 0.000191952
117 *276:23 *612:10 4.09182e-05
118 *276:23 *612:12 5.28896e-05
119 *280:81 *4704:A 0.000101392
120 *381:22 *4704:A 0.000163204
121 *381:22 *612:57 7.25532e-05
122 *381:22 *612:68 0.000259132
123 *381:22 *612:83 8.16669e-05
124 *429:6 *612:83 0.00129527
*RES
1 *4691:X *612:10 6.195 
2 *612:10 *612:12 17.955 
3 *612:12 *612:20 8.02943 
4 *612:20 *4699:A 7.6575 
5 *612:20 *4693:A 30.5875 
6 *612:12 *4698:A 3.6 
7 *612:10 *612:57 12.11 
8 *612:57 *4700:A 2.395 
9 *612:57 *612:68 8.48 
10 *612:68 *4701:A 3.6 
11 *612:68 *612:83 34.615 
12 *612:83 *4702:A 23.67 
13 *612:83 *4703:A 12.885 
14 *4691:X *4704:A 48.015 
*END

*D_NET *613 0.0410405
*CONN
*I *4695:A I *D sky130_fd_sc_hd__clkbuf_8
*I *4707:A I *D sky130_fd_sc_hd__clkbuf_8
*I *4708:A I *D sky130_fd_sc_hd__clkbuf_8
*I *4694:A I *D sky130_fd_sc_hd__clkbuf_8
*I *4696:A I *D sky130_fd_sc_hd__clkbuf_8
*I *4706:A I *D sky130_fd_sc_hd__clkbuf_8
*I *4705:A I *D sky130_fd_sc_hd__clkbuf_8
*I *4697:A I *D sky130_fd_sc_hd__clkbuf_8
*I *4692:X O *D sky130_fd_sc_hd__clkbuf_16
*CAP
1 *4695:A 0.00113973
2 *4707:A 0.000741346
3 *4708:A 0
4 *4694:A 0
5 *4696:A 0.00105497
6 *4706:A 0.00056459
7 *4705:A 0
8 *4697:A 0.00187874
9 *4692:X 0.000568018
10 *613:106 0.00119801
11 *613:100 0.00253718
12 *613:93 0.00291444
13 *613:66 0.00306146
14 *613:22 0.00472149
15 *613:14 0.00394252
16 *4695:A *4396:A1 0.000223907
17 *4695:A *714:62 0.000103956
18 *4695:A *714:76 0
19 *4695:A *777:8 0
20 *4696:A *4207:B1 0.000185405
21 *4696:A *4713:A 9.24127e-05
22 *4696:A *4729:A 0
23 *4696:A *617:8 1.60203e-05
24 *4696:A *617:12 5.05521e-05
25 *4696:A *617:57 0.000353831
26 *4696:A *722:42 0
27 *4696:A *869:45 0
28 *4696:A *914:40 0.000139465
29 *4696:A *914:57 8.34369e-05
30 *4696:A *925:14 2.42236e-05
31 *4696:A *936:37 0.000665545
32 *4697:A *4119:A1 5.06544e-05
33 *4697:A *4145:C 1.07797e-05
34 *4697:A *4183:C1 0.000110745
35 *4697:A *4363:A1 0.000170661
36 *4697:A *4601:RESET_B 0.000260155
37 *4697:A *4609:D 8.46818e-05
38 *4697:A *4617:D 0.000106393
39 *4697:A *618:97 4.77769e-05
40 *4697:A *618:106 8.41384e-05
41 *4697:A *626:12 0.00018305
42 *4697:A *699:53 0.000117825
43 *4697:A *901:8 8.7152e-06
44 *4697:A *983:20 0.000227799
45 *4697:A *998:10 0
46 *4697:A *1021:139 0.00098932
47 *4706:A *4392:A 0
48 *4706:A *4675:CLK 0.000220476
49 *4706:A *4675:RESET_B 0
50 *4706:A *4729:A 9.30787e-05
51 *4706:A *627:20 0.00018406
52 *4706:A *627:22 0.000137571
53 *4706:A *627:118 0.000271308
54 *4706:A *1012:14 0
55 *4706:A *1020:14 0.000138833
56 *4706:A *1026:16 2.78732e-05
57 *4706:A *1026:22 0
58 *4706:A *1027:12 0.000195977
59 *4707:A *4415:A1 0.000177857
60 *4707:A *4446:A0 0.000237243
61 *4707:A *4651:CLK 0
62 *4707:A *4722:A 0.000114492
63 *4707:A *629:6 4.99619e-05
64 *613:14 *4603:RESET_B 0.000116165
65 *613:14 *4729:A 0.000502299
66 *613:14 *1026:22 0
67 *613:22 *4105:A1 4.66108e-05
68 *613:22 *4113:A0 0.000541113
69 *613:22 *4160:A 0.000193806
70 *613:22 *4161:A1 0.000228401
71 *613:22 *4955:A 0.000118154
72 *613:22 *626:8 0.000309607
73 *613:22 *987:24 0.000342607
74 *613:22 *1004:60 0.00026862
75 *613:22 *1011:8 2.04648e-05
76 *613:22 *1012:14 0.00015896
77 *613:22 *1029:55 0.000273872
78 *613:66 *914:57 8.65905e-05
79 *613:93 *4150:B 4.66826e-05
80 *613:93 *4189:B 7.67415e-06
81 *613:93 *4196:A 0.000157968
82 *613:93 *914:57 0.000145515
83 *613:100 *4396:A1 0.000372416
84 *613:100 *4396:A2 0.000327942
85 *613:100 *615:8 8.65961e-05
86 *613:106 *4645:D 0
87 *613:106 *629:60 0.000183738
88 *4149:A2 *4697:A 3.99395e-05
89 *4193:B *613:93 8.65905e-05
90 *4197:A2 *613:93 0.000198945
91 *4197:A3 *613:93 4.66108e-05
92 *4197:B1 *613:93 0.000273872
93 *4216:B *4696:A 0.000219383
94 *4217:B *613:14 0.000138551
95 *4221:B *613:93 4.85494e-05
96 *4223:B *613:93 2.30292e-05
97 *4228:A1 *613:93 0.000310085
98 *4228:A2 *613:93 7.35813e-05
99 *4252:A *4696:A 0
100 *4279:A *4696:A 0.000332274
101 *4363:B1 *4697:A 0.000174125
102 *4364:C1 *4697:A 0.000125088
103 *4390:B *4696:A 0.000468744
104 *4411:A *613:100 4.82863e-05
105 *4411:B *613:100 6.2061e-05
106 *4476:A *4706:A 6.71882e-05
107 *4477:A2 *4706:A 1.82476e-05
108 *4479:B1_N *4706:A 0.00015356
109 *4481:B *4706:A 2.37321e-05
110 *4481:B *613:14 1.94805e-05
111 *4636:D *613:106 8.70923e-05
112 *4646:D *4695:A 9.14049e-05
113 *4647:D *4695:A 4.16007e-05
114 *4675:D *4706:A 2.54458e-05
115 *4676:D *613:22 4.58257e-05
116 *4810:A *4707:A 1.26626e-05
117 *4838:A *4695:A 4.61744e-05
118 *4891:A *4695:A 0
119 *4921:A *613:22 8.73389e-06
120 *5002:A *613:106 0
121 *5013:A *613:106 0
122 *3:30 *4697:A 0
123 *248:47 *4706:A 9.66106e-05
124 *255:61 *4706:A 1.34361e-05
125 *256:12 *613:14 0
126 *256:18 *4697:A 0.00031744
127 *259:35 *4707:A 0.000228818
128 *259:48 *4707:A 0
129 *259:56 *4695:A 0
130 *262:60 *613:106 0
131 *262:105 *4695:A 0
132 *262:105 *613:106 0
133 *262:107 *4695:A 0
134 *280:51 *4697:A 0
135 *280:69 *4697:A 0.000627467
136 *289:20 *4697:A 0.000275553
137 *289:37 *4697:A 0.000272978
138 *306:12 *613:93 5.05521e-05
139 *307:10 *613:22 2.78074e-05
140 *338:32 *613:93 5.83121e-06
141 *341:14 *613:93 9.52646e-05
142 *341:25 *613:93 9.07709e-05
143 *353:18 *613:93 0.000352156
144 *367:16 *613:93 4.75576e-05
145 *385:12 *4696:A 0.000128949
146 *440:12 *4696:A 0
147 *450:8 *4696:A 0
*RES
1 *4692:X *613:14 14.91 
2 *613:14 *613:22 41.81 
3 *613:22 *4697:A 49.425 
4 *613:22 *4705:A 1.6 
5 *613:14 *4706:A 17.955 
6 *4692:X *613:66 2.395 
7 *613:66 *4696:A 34.175 
8 *613:66 *613:93 36.505 
9 *613:93 *4694:A 1.6 
10 *613:93 *613:100 15.63 
11 *613:100 *613:106 12.265 
12 *613:106 *4708:A 1.6 
13 *613:106 *4707:A 20.9 
14 *613:100 *4695:A 25.58 
*END

*D_NET *614 0.0161271
*CONN
*I *4544:CLK I *D sky130_fd_sc_hd__dfrtp_2
*I *4536:CLK I *D sky130_fd_sc_hd__dfrtp_2
*I *4616:CLK I *D sky130_fd_sc_hd__dfrtp_2
*I *4600:CLK I *D sky130_fd_sc_hd__dfrtp_2
*I *4608:CLK I *D sky130_fd_sc_hd__dfrtp_2
*I *4709:A I *D sky130_fd_sc_hd__clkbuf_4
*I *4592:CLK I *D sky130_fd_sc_hd__dfrtp_2
*I *4584:CLK I *D sky130_fd_sc_hd__dfrtp_2
*I *4568:CLK I *D sky130_fd_sc_hd__dfrtp_2
*I *4576:CLK I *D sky130_fd_sc_hd__dfrtp_2
*I *4567:CLK I *D sky130_fd_sc_hd__dfrtp_2
*I *4591:CLK I *D sky130_fd_sc_hd__dfrtp_2
*I *4583:CLK I *D sky130_fd_sc_hd__dfrtp_2
*I *4575:CLK I *D sky130_fd_sc_hd__dfrtp_2
*I *4693:X O *D sky130_fd_sc_hd__clkbuf_8
*CAP
1 *4544:CLK 0
2 *4536:CLK 0.000422994
3 *4616:CLK 3.41748e-05
4 *4600:CLK 0.000488197
5 *4608:CLK 0.000136716
6 *4709:A 5.14225e-05
7 *4592:CLK 0.000124206
8 *4584:CLK 0.000263785
9 *4568:CLK 0
10 *4576:CLK 0.000116451
11 *4567:CLK 7.29029e-05
12 *4591:CLK 0
13 *4583:CLK 0.000526244
14 *4575:CLK 7.26071e-05
15 *4693:X 0
16 *614:170 0.00109314
17 *614:146 0.000574823
18 *614:129 0.000229704
19 *614:125 0.00122109
20 *614:92 0.000627869
21 *614:70 0.000380872
22 *614:66 0.000796476
23 *614:60 0.0003436
24 *614:22 0.000667336
25 *614:16 0.000199651
26 *614:12 0.000533319
27 *614:10 0.000587982
28 *614:4 0.000769141
29 *4536:CLK *4927:A 0.000197858
30 *4536:CLK *985:99 0.000216891
31 *4536:CLK *1008:27 0
32 *4536:CLK *1043:26 8.33066e-06
33 *4536:CLK *1043:59 0.000324464
34 *4567:CLK *4567:D 2.49909e-05
35 *4567:CLK *4567:RESET_B 1.34594e-05
36 *4575:CLK *990:76 0
37 *4583:CLK *1031:88 6.07575e-06
38 *4584:CLK *4094:A1 4.05674e-06
39 *4584:CLK *4576:D 8.08439e-05
40 *4584:CLK *4584:D 4.91189e-05
41 *4584:CLK *990:30 0
42 *4592:CLK *4094:A1 3.18568e-05
43 *4600:CLK *4313:B_N 5.8085e-05
44 *4600:CLK *1102:8 4.66826e-05
45 *4608:CLK *4310:D 1.03755e-05
46 *4709:A *4314:A2 0.000122801
47 *614:10 *4312:C 4.82369e-05
48 *614:10 *4312:D 0.000195439
49 *614:10 *1015:79 7.35866e-05
50 *614:12 *4567:D 0.000107322
51 *614:12 *1015:71 3.97053e-05
52 *614:12 *1015:79 0.00013596
53 *614:16 *4567:D 5.23362e-05
54 *614:16 *4567:RESET_B 4.75576e-05
55 *614:16 *1062:12 0
56 *614:22 *4271:A2 0
57 *614:22 *4591:RESET_B 7.49327e-05
58 *614:22 *1031:88 4.82919e-05
59 *614:22 *1062:12 0
60 *614:22 *1085:6 3.66734e-05
61 *614:66 *4078:A0 0.000418258
62 *614:66 *4078:A1 1.91597e-05
63 *614:66 *4086:A1 0.000160338
64 *614:66 *4314:A2 0.000231822
65 *614:66 *990:30 0.00015783
66 *614:92 *4584:D 0
67 *614:92 *990:30 0.000478371
68 *614:125 *4312:D 0.000108156
69 *614:129 *4310:D 4.794e-05
70 *614:129 *1023:43 0.000130066
71 *614:146 *4310:D 1.52862e-05
72 *614:146 *1023:43 0.000199299
73 *614:170 *4316:A1 8.41384e-05
74 *614:170 *4316:A2 0.000123805
75 *614:170 *958:74 0.00022102
76 *4315:B1 *614:10 9.50342e-06
77 *4316:B2 *4608:CLK 5.83121e-06
78 *4316:B2 *614:125 0.000198945
79 *4316:B2 *614:170 0.000493115
80 *4583:D *4575:CLK 0.000139238
81 *4583:D *4583:CLK 0.000315303
82 *4583:D *614:22 4.38051e-05
83 *4608:D *614:146 8.08439e-05
84 *4993:A *4584:CLK 5.43869e-05
*RES
1 *4693:X *614:4 1.6 
2 *614:4 *614:10 7.1 
3 *614:10 *614:12 6.48 
4 *614:12 *614:16 4.145 
5 *614:16 *614:22 4.01 
6 *614:22 *4575:CLK 5.235 
7 *614:22 *4583:CLK 10.635 
8 *614:16 *4591:CLK 1.6 
9 *614:12 *4567:CLK 4.74 
10 *614:10 *614:60 2 
11 *614:60 *614:66 9.515 
12 *614:66 *614:70 5.9 
13 *614:70 *4576:CLK 7.49 
14 *614:70 *4568:CLK 1.6 
15 *614:66 *614:92 7.82 
16 *614:92 *4584:CLK 10.445 
17 *614:92 *4592:CLK 3.445 
18 *614:60 *4709:A 2.74 
19 *614:4 *614:125 7.71 
20 *614:125 *614:129 3.5075 
21 *614:129 *4608:CLK 5.7675 
22 *614:129 *614:146 4.2725 
23 *614:146 *4600:CLK 8.965 
24 *614:146 *4616:CLK 2.05 
25 *614:125 *614:170 12.66 
26 *614:170 *4536:CLK 14.93 
27 *614:170 *4544:CLK 1.6 
*END

*D_NET *615 0.0197125
*CONN
*I *4637:CLK I *D sky130_fd_sc_hd__dfrtp_2
*I *4620:CLK I *D sky130_fd_sc_hd__dfrtp_2
*I *4676:CLK I *D sky130_fd_sc_hd__dfrtp_2
*I *4611:CLK I *D sky130_fd_sc_hd__dfrtp_2
*I *4638:CLK I *D sky130_fd_sc_hd__dfrtp_2
*I *4670:CLK I *D sky130_fd_sc_hd__dfrtp_2
*I *4662:CLK I *D sky130_fd_sc_hd__dfrtp_2
*I *4654:CLK I *D sky130_fd_sc_hd__dfrtp_2
*I *4646:CLK I *D sky130_fd_sc_hd__dfrtp_2
*I *4711:A I *D sky130_fd_sc_hd__bufinv_16
*I *4630:CLK I *D sky130_fd_sc_hd__dfrtp_2
*I *4622:CLK I *D sky130_fd_sc_hd__dfrtp_2
*I *4694:X O *D sky130_fd_sc_hd__clkbuf_8
*CAP
1 *4637:CLK 2.16763e-05
2 *4620:CLK 0
3 *4676:CLK 0.000179362
4 *4611:CLK 0.000363179
5 *4638:CLK 0
6 *4670:CLK 0.000295873
7 *4662:CLK 0.000172228
8 *4654:CLK 0
9 *4646:CLK 0
10 *4711:A 0
11 *4630:CLK 0
12 *4622:CLK 0.000593234
13 *4694:X 3.4408e-05
14 *615:134 0.00194873
15 *615:122 0.00200153
16 *615:116 0.00141509
17 *615:77 0.000731996
18 *615:66 0.000703106
19 *615:59 0.000818854
20 *615:51 0.0011166
21 *615:38 0.000736958
22 *615:16 0.000919385
23 *615:10 0.000442496
24 *615:8 0.000948824
25 *4611:CLK *4611:D 8.8266e-05
26 *4622:CLK *4622:RESET_B 0.000128278
27 *4622:CLK *709:47 2.40185e-05
28 *4662:CLK *4463:A1 0
29 *4662:CLK *4662:D 0.000165845
30 *4670:CLK *4463:A0 8.23457e-05
31 *4670:CLK *4463:A1 0
32 *4670:CLK *4662:D 8.79662e-05
33 *4676:CLK *1026:28 1.71013e-05
34 *4676:CLK *1026:36 8.08153e-06
35 *615:16 *4397:B1 0
36 *615:16 *4622:RESET_B 0.000147386
37 *615:51 *4397:B1 0.000188727
38 *615:51 *4398:A1 0.000197027
39 *615:51 *4398:A2 2.64128e-05
40 *615:51 *4398:B1 1.34594e-05
41 *615:51 *4398:B2 0
42 *615:51 *836:75 0
43 *615:51 *836:103 0.000262227
44 *615:59 *4398:B2 0
45 *615:59 *4426:A1 3.43427e-05
46 *615:66 *4426:A1 9.14601e-05
47 *615:66 *4654:RESET_B 8.51586e-05
48 *615:77 *4654:D 2.75229e-05
49 *615:77 *4654:RESET_B 0.000128672
50 *615:116 *4637:RESET_B 0.000361299
51 *615:122 *4227:A1 0.000350486
52 *615:122 *4620:RESET_B 9.6354e-05
53 *615:134 *4169:A 0.000218853
54 *615:134 *936:52 8.65961e-05
55 *4191:A *615:134 0.000239688
56 *4191:B *615:134 0.000237249
57 *4192:C *4611:CLK 0.000313857
58 *4258:B1 *615:134 0.000126463
59 *4400:B1 *4637:CLK 0
60 *4400:B1 *615:122 0
61 *4411:A *615:116 0
62 *4424:B1_N *615:116 0.00019625
63 *4426:A0 *615:51 0
64 *4426:A0 *615:59 0
65 *4426:S *615:59 0.000124895
66 *4455:A1 *4662:CLK 0.000246778
67 *4458:S *4622:CLK 0
68 *4458:S *615:10 8.55971e-05
69 *4458:S *615:16 0.000139862
70 *4458:S *615:116 0.000101421
71 *4463:S *4670:CLK 4.66108e-05
72 *4466:S *4622:CLK 0
73 *4466:S *4637:CLK 3.05373e-05
74 *4466:S *615:122 5.83373e-05
75 *4638:D *615:51 4.18603e-06
76 *4638:D *615:59 9.90808e-05
77 *4646:D *615:66 2.49909e-05
78 *4897:A *4670:CLK 8.65961e-05
79 *255:18 *4611:CLK 0.000105849
80 *255:18 *4676:CLK 0.000159528
81 *256:12 *4611:CLK 0
82 *256:12 *4676:CLK 0
83 *260:80 *4670:CLK 2.92496e-05
84 *260:93 *4670:CLK 0.000120655
85 *262:47 *615:116 0.000250076
86 *298:8 *615:134 8.65905e-05
87 *316:6 *615:134 0.000275542
88 *552:18 *615:10 0
89 *552:18 *615:16 0
90 *552:18 *615:116 0
91 *583:14 *4622:CLK 7.45794e-05
92 *613:100 *615:8 8.65961e-05
*RES
1 *4694:X *615:8 4.395 
2 *615:8 *615:10 2.4 
3 *615:10 *615:16 8.795 
4 *615:16 *4622:CLK 15.455 
5 *615:16 *4630:CLK 1.6 
6 *615:10 *615:38 2 
7 *615:38 *4711:A 1.6 
8 *615:38 *615:51 16.25 
9 *615:51 *615:59 8.585 
10 *615:59 *4646:CLK 1.6 
11 *615:59 *615:66 7.35 
12 *615:66 *4654:CLK 1.6 
13 *615:66 *615:77 6.695 
14 *615:77 *4662:CLK 8.025 
15 *615:77 *4670:CLK 9.645 
16 *615:51 *4638:CLK 3.6 
17 *615:8 *615:116 17.815 
18 *615:116 *615:122 12.455 
19 *615:122 *615:134 27.005 
20 *615:134 *4611:CLK 11.025 
21 *615:134 *4676:CLK 7.53 
22 *615:122 *4620:CLK 1.6 
23 *615:116 *4637:CLK 4.215 
*END

*D_NET *616 0.0175664
*CONN
*I *4671:CLK I *D sky130_fd_sc_hd__dfrtp_2
*I *4663:CLK I *D sky130_fd_sc_hd__dfrtp_2
*I *4672:CLK I *D sky130_fd_sc_hd__dfrtp_2
*I *4664:CLK I *D sky130_fd_sc_hd__dfrtp_2
*I *4648:CLK I *D sky130_fd_sc_hd__dfrtp_2
*I *4640:CLK I *D sky130_fd_sc_hd__dfrtp_2
*I *4632:CLK I *D sky130_fd_sc_hd__dfrtp_2
*I *4656:CLK I *D sky130_fd_sc_hd__dfrtp_2
*I *4655:CLK I *D sky130_fd_sc_hd__dfrtp_2
*I *4623:CLK I *D sky130_fd_sc_hd__dfrtp_2
*I *4649:CLK I *D sky130_fd_sc_hd__dfrtp_2
*I *4631:CLK I *D sky130_fd_sc_hd__dfrtp_2
*I *4639:CLK I *D sky130_fd_sc_hd__dfrtp_2
*I *4647:CLK I *D sky130_fd_sc_hd__dfrtp_2
*I *4712:A I *D sky130_fd_sc_hd__clkbuf_4
*I *4695:X O *D sky130_fd_sc_hd__clkbuf_8
*CAP
1 *4671:CLK 0.000250295
2 *4663:CLK 5.46101e-05
3 *4672:CLK 0.000167869
4 *4664:CLK 6.958e-05
5 *4648:CLK 2.99692e-05
6 *4640:CLK 0
7 *4632:CLK 8.52199e-05
8 *4656:CLK 9.47265e-05
9 *4655:CLK 0
10 *4623:CLK 0.00133135
11 *4649:CLK 0.000104476
12 *4631:CLK 0.000266162
13 *4639:CLK 0.000152852
14 *4647:CLK 0.000215335
15 *4712:A 0
16 *4695:X 0
17 *616:177 0.000434931
18 *616:128 0.000727698
19 *616:111 0.00120934
20 *616:103 0.000612613
21 *616:101 0.00040725
22 *616:99 0.00042889
23 *616:97 0.000605102
24 *616:86 0.000521345
25 *616:58 0.00184402
26 *616:32 0.000535979
27 *616:21 0.000432695
28 *616:15 0.000845399
29 *616:6 0.000557761
30 *616:4 0.000301071
31 *4623:CLK *4732:A 0.000149178
32 *4631:CLK *4398:B2 0
33 *4631:CLK *4399:B1 0
34 *4632:CLK *4632:D 4.18603e-06
35 *4647:CLK *4397:A1 0.000372845
36 *4647:CLK *4432:A1 0.000134515
37 *4647:CLK *4632:D 4.71087e-05
38 *4648:CLK *806:10 1.22505e-05
39 *4649:CLK *4732:A 1.98909e-05
40 *4663:CLK *713:12 1.79174e-05
41 *4664:CLK *4457:A1 2.77183e-05
42 *4671:CLK *4397:A1 0.000149088
43 *4671:CLK *5003:A 0.000235382
44 *4671:CLK *1125:14 0.000309804
45 *4672:CLK *4655:RESET_B 2.54715e-05
46 *4672:CLK *5042:A 0.0001076
47 *4672:CLK *714:8 0.000200843
48 *616:6 *4399:A1 0.000530207
49 *616:15 *4399:A1 0.000169695
50 *616:21 *4632:D 3.54721e-05
51 *616:58 *4399:A1 0.000141604
52 *616:58 *4399:A2 1.2818e-05
53 *616:86 *4399:A1 0.000185208
54 *616:97 *4399:A1 7.88805e-05
55 *616:97 *714:8 1.85837e-05
56 *616:99 *4456:A0 2.55342e-05
57 *616:99 *713:12 1.10359e-05
58 *616:101 *4399:A1 0
59 *616:101 *4456:A0 3.98029e-05
60 *616:101 *4465:A0 3.68769e-05
61 *616:103 *4457:A0 0
62 *616:103 *4465:A0 1.82476e-05
63 *616:103 *4664:D 6.47516e-05
64 *616:103 *806:10 1.10631e-05
65 *616:111 *4457:A0 2.54152e-05
66 *616:111 *4648:D 9.54399e-05
67 *616:111 *722:32 5.12199e-05
68 *616:111 *806:10 0
69 *616:128 *4640:RESET_B 0.000156398
70 *616:128 *4648:RESET_B 4.70477e-05
71 *616:128 *714:14 0
72 *616:177 *4397:A1 0.000136809
73 *616:177 *4456:A0 2.14363e-05
74 *616:177 *713:12 4.51265e-05
75 *4429:B *4623:CLK 1.32026e-05
76 *4435:A *616:58 5.98664e-05
77 *4435:B *616:58 7.10183e-05
78 *4437:A *4632:CLK 0
79 *4438:A0 *4632:CLK 8.97564e-05
80 *4438:A0 *616:128 5.05437e-05
81 *4439:A1 *616:58 2.69153e-05
82 *4439:B1_N *4649:CLK 2.57991e-05
83 *4441:A *4649:CLK 0
84 *4441:A *616:58 0.000119873
85 *4449:A1 *4656:CLK 3.72916e-05
86 *4449:A1 *616:111 1.34503e-05
87 *4449:S *616:128 0
88 *4457:S *616:101 0
89 *4465:S *616:101 0
90 *4655:D *616:97 0.000121039
91 *4656:D *616:128 0.000137571
92 *4840:A *4672:CLK 9.27991e-05
93 *4841:A *4671:CLK 0.000114524
94 *4841:A *616:177 0.000178946
95 *555:12 *4623:CLK 3.56402e-05
96 *559:10 *4649:CLK 6.56509e-05
97 *584:21 *4623:CLK 0.0002214
98 *601:12 *616:128 3.20961e-05
*RES
1 *4695:X *616:4 1.6 
2 *616:4 *616:6 4.935 
3 *616:6 *4712:A 1.6 
4 *616:6 *616:15 4.6875 
5 *616:15 *616:21 3.6575 
6 *616:21 *4647:CLK 9.57 
7 *616:21 *616:32 1.89 
8 *616:32 *4639:CLK 5.79 
9 *616:32 *4631:CLK 8.04 
10 *616:15 *616:58 9.1925 
11 *616:58 *4649:CLK 6 
12 *616:58 *4623:CLK 23.04 
13 *616:4 *616:86 1.83 
14 *616:86 *4655:CLK 1.6 
15 *616:86 *616:97 7.55 
16 *616:97 *616:99 0.87 
17 *616:99 *616:101 3.675 
18 *616:101 *616:103 2.2725 
19 *616:103 *616:111 8.4575 
20 *616:111 *4656:CLK 3.01 
21 *616:111 *616:128 15.055 
22 *616:128 *4632:CLK 7.49 
23 *616:128 *4640:CLK 1.6 
24 *616:103 *4648:CLK 4.2825 
25 *616:101 *4664:CLK 4.755 
26 *616:99 *4672:CLK 8.535 
27 *616:97 *616:177 3.675 
28 *616:177 *4663:CLK 4.395 
29 *616:177 *4671:CLK 10.425 
*END

*D_NET *617 0.0146161
*CONN
*I *4665:CLK I *D sky130_fd_sc_hd__dfrtp_2
*I *4633:CLK I *D sky130_fd_sc_hd__dfrtp_2
*I *4673:CLK I *D sky130_fd_sc_hd__dfrtp_2
*I *4641:CLK I *D sky130_fd_sc_hd__dfrtp_2
*I *4657:CLK I *D sky130_fd_sc_hd__dfrtp_2
*I *4624:CLK I *D sky130_fd_sc_hd__dfrtp_2
*I *4625:CLK I *D sky130_fd_sc_hd__dfrtp_2
*I *4713:A I *D sky130_fd_sc_hd__bufinv_16
*I *4612:CLK I *D sky130_fd_sc_hd__dfrtp_2
*I *4604:CLK I *D sky130_fd_sc_hd__dfrtp_2
*I *4596:CLK I *D sky130_fd_sc_hd__dfrtp_2
*I *4580:CLK I *D sky130_fd_sc_hd__dfrtp_2
*I *4696:X O *D sky130_fd_sc_hd__clkbuf_8
*CAP
1 *4665:CLK 0
2 *4633:CLK 0.00029259
3 *4673:CLK 0
4 *4641:CLK 0.000384732
5 *4657:CLK 0
6 *4624:CLK 0
7 *4625:CLK 0
8 *4713:A 8.70005e-05
9 *4612:CLK 8.99261e-05
10 *4604:CLK 0
11 *4596:CLK 0
12 *4580:CLK 0.000144032
13 *4696:X 0
14 *617:99 0.000572139
15 *617:91 0.0005834
16 *617:83 0.000688583
17 *617:81 0.000195235
18 *617:68 0.000459916
19 *617:57 0.000872059
20 *617:16 0.000616686
21 *617:14 0.000904456
22 *617:12 0.00228263
23 *617:8 0.00189153
24 *617:4 0.000651014
25 *4580:CLK *5037:A 3.03775e-05
26 *4580:CLK *1082:23 0.000134938
27 *4612:CLK *4971:A 0.000187759
28 *4633:CLK *4391:A1 0.000128041
29 *4633:CLK *4665:D 6.94138e-05
30 *4641:CLK *4474:A1 4.21973e-05
31 *4641:CLK *4657:D 0.000171845
32 *4641:CLK *4657:RESET_B 0.000109002
33 *4713:A *722:42 0
34 *617:14 *4596:RESET_B 9.76918e-05
35 *617:14 *4604:D 6.21825e-05
36 *617:14 *4604:RESET_B 4.70393e-05
37 *617:16 *4596:RESET_B 0.00012459
38 *617:16 *4604:D 5.83121e-06
39 *617:81 *4391:A1 0.000117116
40 *617:91 *4391:A1 5.23362e-05
41 *617:91 *4625:RESET_B 3.24046e-05
42 *617:91 *4673:RESET_B 0.000112266
43 *617:99 *4474:A0 0.000122325
44 *617:99 *4474:A1 8.95932e-05
45 *617:99 *4673:D 6.23375e-05
46 *4346:A2 *617:12 0.000160635
47 *4348:A1 *617:12 8.65961e-05
48 *4356:A0 *617:68 9.24127e-05
49 *4356:S *617:91 0
50 *4390:B *617:12 3.23663e-05
51 *4390:B *617:57 0.000272489
52 *4391:A0 *617:57 3.00381e-05
53 *4391:A0 *617:68 4.35348e-05
54 *4391:A0 *617:81 0
55 *4391:S *617:81 0.00016063
56 *4474:S *617:99 8.97486e-05
57 *4624:D *617:68 6.73751e-05
58 *4624:D *617:81 4.18603e-06
59 *4624:D *617:91 4.18603e-06
60 *4625:D *617:81 0
61 *4696:A *4713:A 9.24127e-05
62 *4696:A *617:8 1.60203e-05
63 *4696:A *617:12 5.05521e-05
64 *4696:A *617:57 0.000353831
65 *488:6 *617:12 0.000272481
66 *490:10 *617:12 0.000195839
67 *585:10 *617:91 4.80285e-05
68 *610:8 *4641:CLK 2.75145e-05
*RES
1 *4696:X *617:4 1.6 
2 *617:4 *617:8 0.81 
3 *617:8 *617:12 27.03 
4 *617:12 *617:14 7.005 
5 *617:14 *617:16 7.695 
6 *617:16 *4580:CLK 4.465 
7 *617:16 *4596:CLK 1.6 
8 *617:14 *4604:CLK 1.6 
9 *617:12 *4612:CLK 7.745 
10 *617:8 *4713:A 7.49 
11 *617:4 *617:57 11.49 
12 *617:57 *4625:CLK 1.6 
13 *617:57 *617:68 7.1 
14 *617:68 *4624:CLK 3.6 
15 *617:68 *617:81 6.32 
16 *617:81 *617:83 2 
17 *617:83 *617:91 9.53 
18 *617:91 *617:99 8.41 
19 *617:99 *4657:CLK 1.6 
20 *617:99 *4641:CLK 8.95 
21 *617:91 *4673:CLK 1.6 
22 *617:83 *4633:CLK 8.52 
23 *617:81 *4665:CLK 1.6 
*END

*D_NET *618 0.0158819
*CONN
*I *4601:CLK I *D sky130_fd_sc_hd__dfrtp_2
*I *4617:CLK I *D sky130_fd_sc_hd__dfrtp_2
*I *4609:CLK I *D sky130_fd_sc_hd__dfrtp_2
*I *4588:CLK I *D sky130_fd_sc_hd__dfrtp_2
*I *4572:CLK I *D sky130_fd_sc_hd__dfrtp_2
*I *4569:CLK I *D sky130_fd_sc_hd__dfrtp_2
*I *4564:CLK I *D sky130_fd_sc_hd__dfrtp_2
*I *4714:A I *D sky130_fd_sc_hd__clkbuf_8
*I *4497:CLK I *D sky130_fd_sc_hd__dfrtp_2
*I *4505:CLK I *D sky130_fd_sc_hd__dfrtp_2
*I *4537:CLK I *D sky130_fd_sc_hd__dfrtp_2
*I *4593:CLK I *D sky130_fd_sc_hd__dfrtp_2
*I *4585:CLK I *D sky130_fd_sc_hd__dfrtp_2
*I *4577:CLK I *D sky130_fd_sc_hd__dfrtp_2
*I *4697:X O *D sky130_fd_sc_hd__clkbuf_8
*CAP
1 *4601:CLK 6.26296e-05
2 *4617:CLK 0.000111116
3 *4609:CLK 4.67209e-05
4 *4588:CLK 0.000142257
5 *4572:CLK 0
6 *4569:CLK 9.90801e-05
7 *4564:CLK 0.000215257
8 *4714:A 0
9 *4497:CLK 2.08101e-05
10 *4505:CLK 0
11 *4537:CLK 0.000206293
12 *4593:CLK 0.000223337
13 *4585:CLK 0
14 *4577:CLK 0.000268388
15 *4697:X 0.000372384
16 *618:165 0.000244912
17 *618:154 0.000277045
18 *618:134 0.000362557
19 *618:110 0.000464076
20 *618:108 0.000567756
21 *618:106 0.000373631
22 *618:97 0.000161368
23 *618:65 0.00113778
24 *618:51 0.0015355
25 *618:34 0.00090999
26 *618:10 0.000399792
27 *618:8 0.000462629
28 *4537:CLK *696:48 0
29 *4537:CLK *696:59 0
30 *4564:CLK *4071:A0 2.42236e-05
31 *4564:CLK *4361:A1 2.92496e-05
32 *4564:CLK *4561:RESET_B 0.000316421
33 *4564:CLK *1063:10 0.000116853
34 *4569:CLK *4079:A1 5.05437e-05
35 *4569:CLK *4796:A 4.66108e-05
36 *4569:CLK *731:6 1.91597e-05
37 *4577:CLK *4095:A1 0.000222543
38 *4577:CLK *4577:D 7.03219e-05
39 *4577:CLK *722:77 2.78409e-05
40 *4588:CLK *4185:A1 8.53113e-06
41 *4588:CLK *4909:A 5.53389e-05
42 *4588:CLK *4917:A 0
43 *4593:CLK *4585:D 1.56428e-05
44 *4601:CLK *4111:A0 0.000171934
45 *4601:CLK *985:16 9.65016e-05
46 *4609:CLK *4362:A1 9.02259e-05
47 *4617:CLK *4111:S 1.83847e-05
48 *4617:CLK *4119:A1 0.000354725
49 *4617:CLK *998:18 3.52525e-05
50 *618:8 *4095:S 6.4655e-05
51 *618:10 *4095:A1 0.000154355
52 *618:10 *4103:A1 1.16104e-05
53 *618:10 *906:10 9.387e-06
54 *618:34 *906:10 7.99969e-05
55 *618:51 *906:10 6.55406e-05
56 *618:51 *947:26 7.36562e-05
57 *618:51 *947:34 3.05373e-05
58 *618:65 *4054:A0 0.000118485
59 *618:65 *4912:A 0.000187276
60 *618:65 *621:106 8.49205e-05
61 *618:65 *621:117 5.43017e-05
62 *618:65 *645:12 0.000215535
63 *618:108 *4111:A1 0.000110804
64 *618:108 *4361:A1 0.000293768
65 *618:108 *722:77 0.00022081
66 *618:108 *985:16 6.43474e-05
67 *618:108 *985:24 7.85645e-05
68 *618:108 *988:31 1.84465e-05
69 *618:110 *4361:A1 0.000349719
70 *618:110 *722:77 7.5416e-05
71 *618:110 *985:24 3.23391e-05
72 *618:134 *4909:A 0.000173302
73 *618:134 *722:77 1.56428e-05
74 *618:154 *4111:A1 0.000172915
75 *618:154 *985:16 0.000171979
76 *618:165 *4111:A0 0.000117825
77 *618:165 *4111:S 2.04147e-05
78 *618:165 *985:16 0.000101325
79 *4361:C1 *618:134 6.58423e-05
80 *4369:C1 *4609:CLK 9.02259e-05
81 *4374:A *4617:CLK 0.000318091
82 *4497:D *618:51 4.66108e-05
83 *4505:D *618:65 3.09364e-05
84 *4553:D *4537:CLK 0
85 *4553:D *618:65 0
86 *4564:D *4588:CLK 2.4997e-05
87 *4572:D *4588:CLK 0.000161861
88 *4588:D *4588:CLK 3.09364e-05
89 *4697:A *618:97 4.77769e-05
90 *4697:A *618:106 8.41384e-05
91 *4954:A *4593:CLK 8.53011e-05
92 *272:149 *4537:CLK 0.000331522
93 *272:149 *618:65 0.000150446
94 *280:69 *618:8 0.000394996
95 *280:69 *618:97 0.000341439
96 *280:69 *618:106 7.32625e-05
*RES
1 *4697:X *618:8 8.535 
2 *618:8 *618:10 2.4 
3 *618:10 *4577:CLK 8.79 
4 *618:10 *4585:CLK 3.6 
5 *618:8 *618:34 1.89 
6 *618:34 *4593:CLK 7.155 
7 *618:34 *618:51 10.025 
8 *618:51 *618:65 15.965 
9 *618:65 *4537:CLK 7.98 
10 *618:65 *4505:CLK 3.6 
11 *618:51 *4497:CLK 1.96 
12 *4697:X *618:97 4.81 
13 *618:97 *4714:A 1.6 
14 *618:97 *618:106 2.795 
15 *618:106 *618:108 6.225 
16 *618:108 *618:110 4.185 
17 *618:110 *4564:CLK 8.61 
18 *618:110 *4569:CLK 5.43 
19 *618:108 *618:134 6.59 
20 *618:134 *4572:CLK 1.6 
21 *618:134 *4588:CLK 8.885 
22 *618:106 *618:154 3.93 
23 *618:154 *4609:CLK 5.085 
24 *618:154 *618:165 2.145 
25 *618:165 *4617:CLK 7.845 
26 *618:165 *4601:CLK 5.745 
*END

*D_NET *619 0.0159643
*CONN
*I *4718:A I *D sky130_fd_sc_hd__clkbuf_4
*I *4508:CLK I *D sky130_fd_sc_hd__dfrtp_2
*I *4516:CLK I *D sky130_fd_sc_hd__dfstp_2
*I *4500:CLK I *D sky130_fd_sc_hd__dfrtp_2
*I *4532:CLK I *D sky130_fd_sc_hd__dfstp_2
*I *4512:CLK I *D sky130_fd_sc_hd__dfrtp_2
*I *4528:CLK I *D sky130_fd_sc_hd__dfrtp_2
*I *4520:CLK I *D sky130_fd_sc_hd__dfrtp_2
*I *4504:CLK I *D sky130_fd_sc_hd__dfrtp_2
*I *4529:CLK I *D sky130_fd_sc_hd__dfrtp_2
*I *4513:CLK I *D sky130_fd_sc_hd__dfrtp_2
*I *4561:CLK I *D sky130_fd_sc_hd__dfrtp_2
*I *4489:CLK I *D sky130_fd_sc_hd__dfrtp_2
*I *4556:CLK I *D sky130_fd_sc_hd__dfrtp_2
*I *4686:CLK I *D sky130_fd_sc_hd__dfrtp_2
*I *4698:X O *D sky130_fd_sc_hd__clkbuf_8
*CAP
1 *4718:A 0.000317598
2 *4508:CLK 0
3 *4516:CLK 0.000133359
4 *4500:CLK 0.000204637
5 *4532:CLK 0
6 *4512:CLK 0
7 *4528:CLK 0
8 *4520:CLK 0
9 *4504:CLK 0.00015092
10 *4529:CLK 0.000110062
11 *4513:CLK 0
12 *4561:CLK 0.000729368
13 *4489:CLK 3.55506e-05
14 *4556:CLK 0.000100221
15 *4686:CLK 3.55506e-05
16 *4698:X 0
17 *619:142 0.000362851
18 *619:138 0.000390826
19 *619:104 0.000637488
20 *619:100 0.000711935
21 *619:92 0.000604623
22 *619:90 0.000836825
23 *619:86 0.000570212
24 *619:82 0.000763815
25 *619:38 0.00128155
26 *619:25 0.00099389
27 *619:16 0.000482443
28 *619:12 0.00016491
29 *619:10 0.000633783
30 *619:4 0.000662992
31 *4500:CLK *4532:SET_B 0.000154455
32 *4500:CLK *4785:A 0.000243649
33 *4500:CLK *985:66 0.000639124
34 *4504:CLK *4202:A1 1.59615e-05
35 *4504:CLK *985:68 1.71013e-05
36 *4504:CLK *1006:12 0
37 *4504:CLK *1039:121 0
38 *4516:CLK *1039:16 0.000238919
39 *4529:CLK *4175:C 0
40 *4529:CLK *4785:A 8.49205e-05
41 *4529:CLK *985:66 4.80285e-05
42 *4556:CLK *4513:RESET_B 0.000118504
43 *4556:CLK *4686:RESET_B 0
44 *4561:CLK *4489:RESET_B 8.07616e-05
45 *4561:CLK *698:46 0
46 *4718:A *4174:A1 0
47 *4718:A *4484:S 0.000163199
48 *4718:A *4508:RESET_B 0
49 *619:10 *4175:A_N 6.97118e-05
50 *619:10 *4175:B_N 0.000104175
51 *619:12 *4175:C 0
52 *619:12 *4817:A 0
53 *619:12 *696:18 0
54 *619:16 *4817:A 0
55 *619:16 *696:18 5.88148e-05
56 *619:38 *4484:A0 4.81383e-05
57 *619:38 *4854:A 3.72916e-05
58 *619:38 *796:6 5.36384e-06
59 *619:82 *4508:RESET_B 0.000162332
60 *619:86 *1009:79 1.08758e-05
61 *619:90 *4021:A0 0.000198939
62 *619:90 *1009:79 0.000471235
63 *619:92 *4835:A 8.49205e-05
64 *619:92 *1009:79 0.000382769
65 *619:104 *4032:A1 1.08758e-05
66 *619:104 *4520:RESET_B 0.000116127
67 *619:138 *4015:A0 6.36578e-05
68 *619:138 *4528:RESET_B 0
69 *619:138 *4784:A 1.53032e-05
70 *619:142 *4015:A0 1.09931e-05
71 *619:142 *4528:RESET_B 0
72 *619:142 *4784:A 4.4102e-05
73 *4015:S *4516:CLK 5.83121e-06
74 *4015:S *619:138 0.000112123
75 *4036:S *619:10 8.65905e-05
76 *4177:B1 *4718:A 0.000163019
77 *4177:B1 *619:82 0
78 *4177:C1 *619:10 3.00381e-05
79 *4504:D *4504:CLK 4.18603e-06
80 *4508:D *619:86 2.75145e-05
81 *4512:D *619:92 0.000244992
82 *4513:D *4529:CLK 3.56353e-05
83 *4513:D *619:12 5.72004e-05
84 *4520:D *4504:CLK 5.23093e-05
85 *4528:D *619:100 0
86 *4529:D *4529:CLK 9.30717e-05
87 *4532:D *619:142 0
88 *268:101 *4556:CLK 0.000296088
89 *268:101 *619:25 5.21722e-05
90 *272:149 *4529:CLK 8.78735e-05
*RES
1 *4698:X *619:4 1.6 
2 *619:4 *619:10 9.02 
3 *619:10 *619:12 1.89 
4 *619:12 *619:16 3.38 
5 *619:16 *4686:CLK 2.215 
6 *619:16 *619:25 4.245 
7 *619:25 *4556:CLK 9.02 
8 *619:25 *619:38 5.97 
9 *619:38 *4489:CLK 2.215 
10 *619:38 *4561:CLK 9.91 
11 *619:12 *4513:CLK 3.6 
12 *619:10 *4529:CLK 6.9 
13 *619:4 *619:82 8.065 
14 *619:82 *619:86 3.225 
15 *619:86 *619:90 8.055 
16 *619:90 *619:92 8.385 
17 *619:92 *619:100 7.375 
18 *619:100 *619:104 7.71 
19 *619:104 *4504:CLK 8.3 
20 *619:104 *4520:CLK 1.6 
21 *619:100 *4528:CLK 1.6 
22 *619:92 *4512:CLK 1.6 
23 *619:90 *619:138 3.89 
24 *619:138 *619:142 4.145 
25 *619:142 *4532:CLK 1.6 
26 *619:142 *4500:CLK 9.655 
27 *619:138 *4516:CLK 6.225 
28 *619:86 *4508:CLK 1.6 
29 *619:82 *4718:A 11.525 
*END

*D_NET *620 0.00745162
*CONN
*I *4607:CLK I *D sky130_fd_sc_hd__dfrtp_2
*I *4525:CLK I *D sky130_fd_sc_hd__dfrtp_2
*I *4509:CLK I *D sky130_fd_sc_hd__dfrtp_2
*I *4488:CLK I *D sky130_fd_sc_hd__dfrtp_2
*I *4599:CLK I *D sky130_fd_sc_hd__dfrtp_2
*I *4615:CLK I *D sky130_fd_sc_hd__dfrtp_2
*I *4560:CLK I *D sky130_fd_sc_hd__dfrtp_2
*I *4719:A I *D sky130_fd_sc_hd__inv_6
*I *4699:X O *D sky130_fd_sc_hd__clkbuf_8
*CAP
1 *4607:CLK 0.000153543
2 *4525:CLK 0
3 *4509:CLK 0.000133854
4 *4488:CLK 0
5 *4599:CLK 0
6 *4615:CLK 0.000132779
7 *4560:CLK 0.000780093
8 *4719:A 0.000132129
9 *4699:X 0
10 *620:57 0.000677176
11 *620:50 0.000648376
12 *620:43 0.000212047
13 *620:21 0.00119171
14 *620:19 0.000385828
15 *620:17 0.0002291
16 *620:6 0.000207685
17 *4509:CLK *3987:A0 0
18 *4509:CLK *3987:A1 0.000208957
19 *4509:CLK *1037:65 5.23362e-05
20 *4560:CLK *4575:D 0.0001151
21 *4560:CLK *4575:RESET_B 0.000132861
22 *4560:CLK *4994:A 0.000390466
23 *4560:CLK *1077:8 0.00016569
24 *4607:CLK *4070:A1 1.19928e-05
25 *4607:CLK *4599:D 0.000358937
26 *4607:CLK *4599:RESET_B 0.000199953
27 *4607:CLK *4607:D 6.71882e-05
28 *4607:CLK *4615:RESET_B 5.83121e-06
29 *4607:CLK *1032:36 0.000127004
30 *4607:CLK *1032:54 4.4123e-05
31 *4615:CLK *4101:A0 0
32 *4615:CLK *4109:S 2.75229e-05
33 *4615:CLK *1101:10 4.91189e-05
34 *4615:CLK *1101:27 2.75229e-05
35 *4719:A *994:69 0.000102411
36 *620:17 *4599:D 5.39961e-05
37 *620:17 *4599:RESET_B 4.78461e-05
38 *620:17 *994:69 5.92191e-05
39 *620:21 *4599:RESET_B 4.70393e-05
40 *620:57 *4488:RESET_B 0.000181353
41 *620:57 *4525:RESET_B 2.49909e-05
42 *4273:A3 *4607:CLK 6.58423e-05
43 *4615:D *4615:CLK 0
44 *4615:D *620:17 0
*RES
1 *4699:X *620:6 3.6 
2 *620:6 *4719:A 6.255 
3 *620:6 *620:17 1.89 
4 *620:17 *620:19 2 
5 *620:19 *620:21 4.245 
6 *620:21 *4560:CLK 16.195 
7 *620:21 *4615:CLK 7.94 
8 *620:19 *620:43 1.485 
9 *620:43 *4599:CLK 1.6 
10 *620:43 *620:50 1.485 
11 *620:50 *4488:CLK 1.6 
12 *620:50 *620:57 8.73 
13 *620:57 *4509:CLK 8.54 
14 *620:57 *4525:CLK 1.6 
15 *620:17 *4607:CLK 9.27 
*END

*D_NET *621 0.0148908
*CONN
*I *4710:A I *D sky130_fd_sc_hd__clkbuf_8
*I *4524:CLK I *D sky130_fd_sc_hd__dfstp_2
*I *4521:CLK I *D sky130_fd_sc_hd__dfrtp_2
*I *4545:CLK I *D sky130_fd_sc_hd__dfrtp_2
*I *4553:CLK I *D sky130_fd_sc_hd__dfrtp_2
*I *4492:CLK I *D sky130_fd_sc_hd__dfrtp_2
*I *4548:CLK I *D sky130_fd_sc_hd__dfrtp_2
*I *4540:CLK I *D sky130_fd_sc_hd__dfstp_2
*I *4552:CLK I *D sky130_fd_sc_hd__dfrtp_2
*I *4493:CLK I *D sky130_fd_sc_hd__dfrtp_2
*I *4549:CLK I *D sky130_fd_sc_hd__dfstp_2
*I *4541:CLK I *D sky130_fd_sc_hd__dfrtp_2
*I *4496:CLK I *D sky130_fd_sc_hd__dfrtp_2
*I *4700:X O *D sky130_fd_sc_hd__clkbuf_8
*CAP
1 *4710:A 0.00018717
2 *4524:CLK 0
3 *4521:CLK 0.000454501
4 *4545:CLK 0.000368455
5 *4553:CLK 0
6 *4492:CLK 0
7 *4548:CLK 7.87749e-05
8 *4540:CLK 0
9 *4552:CLK 0
10 *4493:CLK 0
11 *4549:CLK 0.000115243
12 *4541:CLK 0.000188029
13 *4496:CLK 0.000136239
14 *4700:X 0
15 *621:117 0.000936841
16 *621:106 0.000526047
17 *621:93 0.000691314
18 *621:80 0.000496191
19 *621:73 0.000138264
20 *621:43 0.000505078
21 *621:37 0.0010249
22 *621:22 0.000959328
23 *621:20 0.00088908
24 *621:12 0.000977323
25 *621:10 0.000200226
26 *621:4 0.000299154
27 *4521:CLK *4366:A1 8.19654e-05
28 *4521:CLK *4366:B2 1.12643e-05
29 *4521:CLK *4545:RESET_B 6.81421e-05
30 *4521:CLK *685:10 8.49205e-05
31 *4521:CLK *696:82 0
32 *4541:CLK *958:74 0.000387891
33 *4545:CLK *4054:A1 5.69248e-06
34 *4549:CLK *4764:A 2.97004e-06
35 *4549:CLK *1015:32 0
36 *4710:A *986:31 2.99518e-06
37 *4710:A *987:84 7.66083e-05
38 *4710:A *1024:24 0
39 *621:10 *958:35 0
40 *621:10 *987:84 0.000198939
41 *621:12 *4336:A2 0
42 *621:20 *1042:61 4.11729e-05
43 *621:37 *633:8 5.05521e-05
44 *621:43 *1015:32 0
45 *621:93 *1045:49 3.64998e-06
46 *621:106 *4054:A0 1.33285e-05
47 *621:106 *4054:A1 0.00012657
48 *621:106 *1045:49 0.000129697
49 *621:117 *4054:A0 6.71882e-05
50 *621:117 *696:59 0
51 *4006:S *4549:CLK 6.57201e-05
52 *4006:S *621:43 6.52906e-05
53 *4031:S *621:20 0.000165698
54 *4204:A2 *4496:CLK 0
55 *4204:A2 *621:37 0
56 *4204:A3 *4549:CLK 0
57 *4366:A2 *4521:CLK 1.37395e-05
58 *4366:C1 *4521:CLK 6.96579e-05
59 *4369:B1 *4521:CLK 0.000420168
60 *4493:D *621:37 7.35729e-05
61 *4505:D *4521:CLK 2.20641e-05
62 *4505:D *4545:CLK 0.000112884
63 *4505:D *621:117 6.10014e-05
64 *4524:D *4548:CLK 4.92096e-05
65 *4540:D *621:80 0.000167593
66 *4540:D *621:93 7.25441e-05
67 *4545:D *4545:CLK 5.0512e-05
68 *4545:D *621:106 2.11084e-05
69 *4552:D *621:37 3.59997e-05
70 *272:68 *4496:CLK 0
71 *272:68 *621:37 0
72 *272:76 *4496:CLK 0
73 *272:149 *621:12 0
74 *272:149 *621:20 0
75 *272:149 *621:106 0.000503697
76 *274:30 *621:93 0.000315123
77 *274:30 *621:106 0.00068161
78 *274:50 *4548:CLK 0.000183043
79 *274:50 *621:20 0.000278556
80 *274:74 *4710:A 5.16418e-05
81 *275:36 *4548:CLK 0
82 *275:36 *4710:A 0
83 *275:36 *621:10 0.000160965
84 *275:36 *621:12 0.000159059
85 *275:36 *621:20 0.000139933
86 *612:57 *4710:A 8.65905e-05
87 *612:57 *621:10 0.000198939
88 *618:65 *621:106 8.49205e-05
89 *618:65 *621:117 5.43017e-05
*RES
1 *4700:X *621:4 1.6 
2 *621:4 *621:10 5.72 
3 *621:10 *621:12 1.89 
4 *621:12 *621:20 14.015 
5 *621:20 *621:22 2 
6 *621:22 *4496:CLK 5.745 
7 *621:22 *621:37 14.6 
8 *621:37 *621:43 5.375 
9 *621:43 *4541:CLK 7.5 
10 *621:43 *4549:CLK 5.745 
11 *621:37 *4493:CLK 1.6 
12 *621:20 *4552:CLK 1.6 
13 *621:12 *621:73 2 
14 *621:73 *4540:CLK 1.6 
15 *621:73 *621:80 2.52 
16 *621:80 *4548:CLK 7.745 
17 *621:80 *621:93 5.625 
18 *621:93 *4492:CLK 1.6 
19 *621:93 *621:106 12.315 
20 *621:106 *4553:CLK 1.6 
21 *621:106 *621:117 4.52 
22 *621:117 *4545:CLK 12.565 
23 *621:117 *4521:CLK 12.945 
24 *621:10 *4524:CLK 3.6 
25 *621:4 *4710:A 9.05 
*END

*D_NET *622 0.0171881
*CONN
*I *4546:CLK I *D sky130_fd_sc_hd__dfrtp_2
*I *4531:CLK I *D sky130_fd_sc_hd__dfstp_2
*I *4491:CLK I *D sky130_fd_sc_hd__dfrtp_2
*I *4547:CLK I *D sky130_fd_sc_hd__dfrtp_2
*I *4539:CLK I *D sky130_fd_sc_hd__dfstp_2
*I *4490:CLK I *D sky130_fd_sc_hd__dfstp_2
*I *4530:CLK I *D sky130_fd_sc_hd__dfrtp_2
*I *4538:CLK I *D sky130_fd_sc_hd__dfstp_2
*I *4526:CLK I *D sky130_fd_sc_hd__dfrtp_2
*I *4689:CLK I *D sky130_fd_sc_hd__dfrtp_2
*I *4501:CLK I *D sky130_fd_sc_hd__dfrtp_2
*I *4550:CLK I *D sky130_fd_sc_hd__dfrtp_2
*I *4502:CLK I *D sky130_fd_sc_hd__dfrtp_2
*I *4534:CLK I *D sky130_fd_sc_hd__dfrtp_2
*I *4701:X O *D sky130_fd_sc_hd__clkbuf_8
*CAP
1 *4546:CLK 0.00082149
2 *4531:CLK 0
3 *4491:CLK 0.000755447
4 *4547:CLK 3.55506e-05
5 *4539:CLK 0.000116464
6 *4490:CLK 0
7 *4530:CLK 8.49496e-05
8 *4538:CLK 0
9 *4526:CLK 2.08101e-05
10 *4689:CLK 0.000329661
11 *4501:CLK 4.45915e-05
12 *4550:CLK 0
13 *4502:CLK 0.000123161
14 *4534:CLK 8.34808e-05
15 *4701:X 0
16 *622:142 0.00091588
17 *622:124 0.00112345
18 *622:120 0.000475763
19 *622:109 0.00104093
20 *622:100 0.00103806
21 *622:57 0.000924361
22 *622:53 0.00117609
23 *622:29 0.000153717
24 *622:27 0.000700648
25 *622:16 0.000658261
26 *622:14 0.000630859
27 *622:10 0.000365407
28 *622:4 0.000321969
29 *4491:CLK *4788:A 4.24575e-05
30 *4491:CLK *687:10 3.64522e-05
31 *4501:CLK *1007:123 0.000210839
32 *4501:CLK *1043:59 0.000210144
33 *4502:CLK *4231:B2 6.74079e-05
34 *4502:CLK *4952:A 4.58406e-05
35 *4502:CLK *1017:32 0
36 *4530:CLK *1009:34 0
37 *4546:CLK *4530:RESET_B 9.43599e-05
38 *4546:CLK *1048:107 0
39 *4689:CLK *4022:A0 0.000265271
40 *4689:CLK *4533:RESET_B 3.74359e-05
41 *4689:CLK *4689:RESET_B 0.000387896
42 *4689:CLK *1006:86 2.0514e-05
43 *4689:CLK *1007:123 0.000132842
44 *4689:CLK *1043:59 0.000171616
45 *622:10 *1009:34 0
46 *622:16 *4231:A1 0.000197264
47 *622:16 *4237:B2 4.82919e-05
48 *622:16 *4534:RESET_B 0.000119066
49 *622:16 *4936:A 0.000111455
50 *622:27 *4952:A 7.26551e-05
51 *622:27 *1017:32 0
52 *622:29 *4952:A 2.23407e-05
53 *622:29 *1017:32 0
54 *622:53 *4526:RESET_B 0.000190547
55 *622:57 *4003:A0 0.000237249
56 *622:57 *4003:A1 8.40269e-05
57 *622:57 *4870:A 0.000272978
58 *622:57 *4877:A 7.35813e-05
59 *622:109 *630:10 0.000238919
60 *4022:S *4689:CLK 8.57024e-05
61 *4043:S *4689:CLK 6.77417e-05
62 *4237:A1 *622:10 7.36076e-05
63 *4237:A1 *622:14 0.000117395
64 *4237:A1 *622:16 0.000110563
65 *4237:A2 *622:16 0.000118212
66 *4501:D *622:57 4.10576e-05
67 *4517:D *4689:CLK 8.82557e-05
68 *4526:D *622:53 0.000198205
69 *4531:D *4546:CLK 0
70 *4533:D *4689:CLK 3.72916e-05
71 *4534:D *4534:CLK 5.83121e-06
72 *4534:D *622:16 1.91597e-05
73 *4534:D *622:27 5.23362e-05
74 *4538:D *4530:CLK 6.44051e-05
75 *4538:D *622:10 1.22676e-05
76 *4539:D *4539:CLK 0
77 *4539:D *4546:CLK 0
78 *4539:D *622:120 0
79 *4539:D *622:142 0
80 *267:62 *622:57 4.35348e-05
81 *273:38 *4689:CLK 0.00027299
82 *274:22 *4539:CLK 0
83 *274:22 *4546:CLK 0
84 *274:22 *622:120 0
85 *274:22 *622:142 0
86 *275:18 *4546:CLK 0.000331323
87 *275:30 *4546:CLK 0.000115779
88 *612:68 *622:10 0
89 *612:83 *622:10 0
*RES
1 *4701:X *622:4 1.6 
2 *622:4 *622:10 4.85 
3 *622:10 *622:14 4.52 
4 *622:14 *622:16 9.765 
5 *622:16 *4534:CLK 2.74 
6 *622:16 *622:27 3.635 
7 *622:27 *622:29 0.615 
8 *622:29 *4502:CLK 6.195 
9 *622:29 *4550:CLK 3.6 
10 *622:27 *622:53 9.71 
11 *622:53 *622:57 12.11 
12 *622:57 *4501:CLK 6 
13 *622:57 *4689:CLK 13.965 
14 *622:53 *4526:CLK 1.96 
15 *622:14 *4538:CLK 1.6 
16 *622:10 *4530:CLK 5.49 
17 *622:4 *622:100 2.175 
18 *622:100 *4490:CLK 1.6 
19 *622:100 *622:109 15.215 
20 *622:109 *4539:CLK 5.49 
21 *622:109 *622:120 0.87 
22 *622:120 *622:124 5.555 
23 *622:124 *4547:CLK 2.215 
24 *622:124 *4491:CLK 9.91 
25 *622:120 *622:142 1.38 
26 *622:142 *4531:CLK 3.6 
27 *622:142 *4546:CLK 15.285 
*END

*D_NET *623 0.0149761
*CONN
*I *4527:CLK I *D sky130_fd_sc_hd__dfrtp_2
*I *4495:CLK I *D sky130_fd_sc_hd__dfrtp_2
*I *4551:CLK I *D sky130_fd_sc_hd__dfrtp_2
*I *4535:CLK I *D sky130_fd_sc_hd__dfrtp_2
*I *4533:CLK I *D sky130_fd_sc_hd__dfrtp_2
*I *4517:CLK I *D sky130_fd_sc_hd__dfrtp_2
*I *4581:CLK I *D sky130_fd_sc_hd__dfrtp_2
*I *4565:CLK I *D sky130_fd_sc_hd__dfrtp_2
*I *4557:CLK I *D sky130_fd_sc_hd__dfrtp_2
*I *4687:CLK I *D sky130_fd_sc_hd__dfrtp_2
*I *4573:CLK I *D sky130_fd_sc_hd__dfrtp_2
*I *4613:CLK I *D sky130_fd_sc_hd__dfrtp_2
*I *4715:A I *D sky130_fd_sc_hd__clkbuf_4
*I *4559:CLK I *D sky130_fd_sc_hd__dfrtp_2
*I *4702:X O *D sky130_fd_sc_hd__clkbuf_8
*CAP
1 *4527:CLK 0
2 *4495:CLK 8.53178e-05
3 *4551:CLK 0.000142138
4 *4535:CLK 0.000298364
5 *4533:CLK 0
6 *4517:CLK 0.000315233
7 *4581:CLK 0.00042549
8 *4565:CLK 9.29622e-05
9 *4557:CLK 0
10 *4687:CLK 0.000220669
11 *4573:CLK 0.000111251
12 *4613:CLK 0.000127008
13 *4715:A 0
14 *4559:CLK 0.000545744
15 *4702:X 0.000450254
16 *623:144 0.000227456
17 *623:142 0.000634204
18 *623:109 0.000586522
19 *623:107 0.000569653
20 *623:105 0.000761292
21 *623:60 0.000345341
22 *623:58 0.000331214
23 *623:56 0.00053907
24 *623:45 0.00113972
25 *623:10 0.000686596
26 *623:8 0.000267859
27 *623:6 0.00135164
28 *4495:CLK *667:14 0
29 *4517:CLK *994:50 0
30 *4535:CLK *4214:A2 7.2986e-05
31 *4535:CLK *4487:A1 0
32 *4535:CLK *1028:77 8.65905e-05
33 *4551:CLK *4215:A2_N 5.05521e-05
34 *4551:CLK *4764:A 6.14433e-05
35 *4551:CLK *667:14 0
36 *4559:CLK *4134:C_N 0.000307055
37 *4559:CLK *4210:A2 0.000230096
38 *4559:CLK *4559:D 5.34747e-05
39 *4559:CLK *4559:RESET_B 1.84712e-05
40 *4559:CLK *1061:8 1.30905e-05
41 *4581:CLK *4573:D 7.06865e-05
42 *4613:CLK *1022:55 6.97358e-05
43 *623:6 *4123:A0 0.000313857
44 *623:6 *4123:A1 4.82919e-05
45 *623:6 *4123:S 4.85494e-05
46 *623:6 *4209:A_N 1.56428e-05
47 *623:10 *4134:C_N 0.000178439
48 *623:10 *1022:55 3.52241e-05
49 *623:45 *4209:A_N 5.28309e-05
50 *623:45 *4209:B_N 2.05056e-05
51 *623:45 *4969:A 0.000121019
52 *623:45 *1075:8 0.000310067
53 *623:58 *4573:D 3.09164e-05
54 *623:109 *4487:A1 0
55 *623:109 *994:50 0
56 *4043:S *4535:CLK 0
57 *4210:B1 *4559:CLK 0
58 *4527:D *4495:CLK 9.30787e-05
59 *4527:D *623:142 4.82863e-05
60 *4533:D *4517:CLK 4.91189e-05
61 *4535:D *4535:CLK 8.53113e-06
62 *4557:D *4687:CLK 0
63 *4565:D *4565:CLK 2.75145e-05
64 *4565:D *623:58 0.000113752
65 *4565:D *623:60 2.86623e-05
66 *4581:D *4581:CLK 3.07686e-05
67 *4687:D *4687:CLK 3.00381e-05
68 *4689:D *4517:CLK 0
69 *4702:A *4495:CLK 7.1301e-06
70 *4702:A *4551:CLK 1.52184e-05
71 *4702:A *623:6 0.00026602
72 *4702:A *623:105 0.000313852
73 *4702:A *623:142 0.0013839
74 *4703:A *4495:CLK 2.68721e-05
75 *4816:A *623:6 4.82919e-05
76 *4970:A *4581:CLK 0
77 *360:16 *4517:CLK 0
78 *360:16 *623:109 0
79 *612:83 *623:142 2.0514e-05
*RES
1 *4702:X *623:6 8.605 
2 *623:6 *623:8 2 
3 *623:8 *623:10 2.91 
4 *623:10 *4559:CLK 12.975 
5 *623:10 *4715:A 3.6 
6 *623:8 *4613:CLK 5.685 
7 *623:6 *623:45 12.195 
8 *623:45 *4573:CLK 3.01 
9 *623:45 *623:56 2 
10 *623:56 *623:58 2.655 
11 *623:58 *623:60 2.145 
12 *623:60 *4687:CLK 7.23 
13 *623:60 *4557:CLK 3.6 
14 *623:58 *4565:CLK 5.085 
15 *623:56 *4581:CLK 10.8 
16 *4702:X *623:105 4.465 
17 *623:105 *623:107 2 
18 *623:107 *623:109 4.185 
19 *623:109 *4517:CLK 8.925 
20 *623:109 *4533:CLK 3.6 
21 *623:107 *4535:CLK 9.195 
22 *623:105 *623:142 13.56 
23 *623:142 *623:144 2 
24 *623:144 *4551:CLK 6.54 
25 *623:144 *4495:CLK 5.49 
26 *623:142 *4527:CLK 1.6 
*END

*D_NET *624 0.0156833
*CONN
*I *4518:CLK I *D sky130_fd_sc_hd__dfrtp_2
*I *4688:CLK I *D sky130_fd_sc_hd__dfrtp_2
*I *4506:CLK I *D sky130_fd_sc_hd__dfstp_2
*I *4510:CLK I *D sky130_fd_sc_hd__dfrtp_2
*I *4542:CLK I *D sky130_fd_sc_hd__dfrtp_2
*I *4494:CLK I *D sky130_fd_sc_hd__dfrtp_2
*I *4511:CLK I *D sky130_fd_sc_hd__dfrtp_2
*I *4716:A I *D sky130_fd_sc_hd__clkbuf_4
*I *4503:CLK I *D sky130_fd_sc_hd__dfrtp_2
*I *4519:CLK I *D sky130_fd_sc_hd__dfrtp_2
*I *4605:CLK I *D sky130_fd_sc_hd__dfrtp_2
*I *4597:CLK I *D sky130_fd_sc_hd__dfrtp_2
*I *4589:CLK I *D sky130_fd_sc_hd__dfrtp_2
*I *4543:CLK I *D sky130_fd_sc_hd__dfrtp_2
*I *4703:X O *D sky130_fd_sc_hd__clkbuf_8
*CAP
1 *4518:CLK 0.000159973
2 *4688:CLK 6.04984e-05
3 *4506:CLK 0.00051369
4 *4510:CLK 0
5 *4542:CLK 0.000271443
6 *4494:CLK 5.64096e-05
7 *4511:CLK 0
8 *4716:A 5.54619e-05
9 *4503:CLK 0
10 *4519:CLK 1.19386e-05
11 *4605:CLK 0
12 *4597:CLK 0.00020561
13 *4589:CLK 0.000108642
14 *4543:CLK 9.81118e-05
15 *4703:X 0
16 *624:127 0.000329822
17 *624:125 0.000677545
18 *624:121 0.00101574
19 *624:108 0.000983043
20 *624:104 0.000508645
21 *624:93 0.000384621
22 *624:80 0.000226601
23 *624:66 6.24565e-05
24 *624:35 0.000620806
25 *624:31 0.000601412
26 *624:18 0.000830644
27 *624:12 0.00109499
28 *624:4 0.000665118
29 *4494:CLK *1018:101 7.69521e-05
30 *4506:CLK *4235:C 2.16917e-05
31 *4506:CLK *4542:RESET_B 4.55864e-06
32 *4506:CLK *4688:RESET_B 0.000122331
33 *4506:CLK *682:6 8.12469e-05
34 *4506:CLK *982:85 0.000104325
35 *4506:CLK *1018:43 0.000628449
36 *4506:CLK *1018:49 0.00045034
37 *4518:CLK *4818:A 2.24975e-05
38 *4542:CLK *982:111 9.27181e-05
39 *4542:CLK *1017:22 0.000139245
40 *4543:CLK *4115:A0 0
41 *4543:CLK *4282:A2 7.89689e-05
42 *4543:CLK *1007:39 8.53113e-06
43 *4543:CLK *1028:77 0
44 *4589:CLK *4107:A0 1.15688e-05
45 *4589:CLK *4211:C 0
46 *4589:CLK *4212:C1 9.50342e-06
47 *4589:CLK *4589:D 0.000136877
48 *4597:CLK *4099:A0 0
49 *4597:CLK *4589:D 0.000114492
50 *4597:CLK *4597:D 9.60582e-07
51 *4688:CLK *4232:B 3.64998e-06
52 *4688:CLK *4233:A1 9.50342e-06
53 *4688:CLK *1010:42 4.82919e-05
54 *4688:CLK *1010:58 0.000105266
55 *4688:CLK *1025:16 1.47347e-05
56 *4688:CLK *1025:42 5.83373e-05
57 *4716:A *4285:A1 0.000156623
58 *4716:A *1028:18 5.70461e-06
59 *624:12 *4005:A0 0
60 *624:12 *4285:A1 5.63341e-05
61 *624:12 *4503:RESET_B 1.23607e-05
62 *624:18 *4115:A0 0
63 *624:18 *4282:A2 6.01715e-05
64 *624:18 *4519:RESET_B 4.77531e-05
65 *624:18 *659:8 4.80285e-05
66 *624:31 *993:31 5.83121e-06
67 *624:35 *4605:RESET_B 0.000338523
68 *624:35 *993:31 0.000662346
69 *624:35 *1107:8 5.39956e-05
70 *624:108 *4280:C 0
71 *624:108 *4818:A 0
72 *624:121 *4013:A0 2.05056e-05
73 *624:121 *1010:58 0.000564901
74 *624:121 *1018:101 0.00019071
75 *624:125 *1010:58 2.92496e-05
76 *624:125 *1018:49 0
77 *624:125 *1025:42 3.57846e-05
78 *4005:S *4716:A 0.00013687
79 *4005:S *624:80 0.000122325
80 *4005:S *624:93 3.57349e-05
81 *4052:S *4506:CLK 0
82 *4052:S *4518:CLK 1.91832e-05
83 *4052:S *624:93 9.20741e-05
84 *4052:S *624:104 0.000203123
85 *4052:S *624:108 3.05373e-05
86 *4052:S *624:125 4.14369e-05
87 *4236:B *4506:CLK 2.75229e-05
88 *4236:B *624:125 0.000111061
89 *4236:B *624:127 8.247e-05
90 *4236:C *4506:CLK 0.000142652
91 *4236:C *624:127 7.50685e-05
92 *4236:D_N *4542:CLK 3.25831e-05
93 *4494:D *624:121 0.000122325
94 *4510:D *4506:CLK 0
95 *4510:D *624:125 0.00011338
96 *4518:D *4518:CLK 6.06689e-05
97 *4519:D *4519:CLK 7.00889e-06
98 *4519:D *624:18 3.99879e-05
99 *4543:D *4543:CLK 1.01661e-05
*RES
1 *4703:X *624:4 1.6 
2 *624:4 *624:12 11.005 
3 *624:12 *624:18 7.97 
4 *624:18 *4543:CLK 5.745 
5 *624:18 *624:31 6.245 
6 *624:31 *624:35 10.385 
7 *624:35 *4589:CLK 5.745 
8 *624:35 *4597:CLK 6.735 
9 *624:31 *4605:CLK 1.6 
10 *624:12 *624:66 1.065 
11 *624:66 *4519:CLK 2.05 
12 *624:66 *4503:CLK 1.6 
13 *624:4 *624:80 1.14 
14 *624:80 *4716:A 7.49 
15 *624:80 *624:93 2.175 
16 *624:93 *4511:CLK 1.6 
17 *624:93 *624:104 7.295 
18 *624:104 *624:108 3.38 
19 *624:108 *4494:CLK 2.665 
20 *624:108 *624:121 13.145 
21 *624:121 *624:125 4.655 
22 *624:125 *624:127 1.485 
23 *624:127 *4542:CLK 10.475 
24 *624:127 *4510:CLK 1.6 
25 *624:125 *4506:CLK 18.65 
26 *624:121 *4688:CLK 5.43 
27 *624:104 *4518:CLK 6.645 
*END

*D_NET *625 0.0136905
*CONN
*I *4555:CLK I *D sky130_fd_sc_hd__dfrtp_2
*I *4558:CLK I *D sky130_fd_sc_hd__dfrtp_2
*I *4685:CLK I *D sky130_fd_sc_hd__dfrtp_2
*I *4554:CLK I *D sky130_fd_sc_hd__dfrtp_2
*I *4562:CLK I *D sky130_fd_sc_hd__dfrtp_2
*I *4515:CLK I *D sky130_fd_sc_hd__dfrtp_2
*I *4684:CLK I *D sky130_fd_sc_hd__dfrtp_2
*I *4717:A I *D sky130_fd_sc_hd__clkbuf_4
*I *4499:CLK I *D sky130_fd_sc_hd__dfstp_2
*I *4523:CLK I *D sky130_fd_sc_hd__dfrtp_2
*I *4522:CLK I *D sky130_fd_sc_hd__dfstp_2
*I *4498:CLK I *D sky130_fd_sc_hd__dfrtp_2
*I *4514:CLK I *D sky130_fd_sc_hd__dfrtp_2
*I *4507:CLK I *D sky130_fd_sc_hd__dfstp_2
*I *4704:X O *D sky130_fd_sc_hd__clkbuf_8
*CAP
1 *4555:CLK 0
2 *4558:CLK 0.000163479
3 *4685:CLK 0
4 *4554:CLK 0.000172759
5 *4562:CLK 0.000388978
6 *4515:CLK 0
7 *4684:CLK 0
8 *4717:A 0.000100427
9 *4499:CLK 0
10 *4523:CLK 0
11 *4522:CLK 0
12 *4498:CLK 0
13 *4514:CLK 2.89741e-05
14 *4507:CLK 5.22177e-05
15 *4704:X 0
16 *625:142 0.000744518
17 *625:135 0.000835078
18 *625:109 0.000757585
19 *625:102 0.000322165
20 *625:98 0.000453535
21 *625:89 0.000255538
22 *625:51 0.000547726
23 *625:39 0.00106592
24 *625:24 0.000826983
25 *625:20 0.000592964
26 *625:12 0.000365371
27 *625:10 0.00045005
28 *625:4 0.000531982
29 *4514:CLK *4514:RESET_B 2.49909e-05
30 *4558:CLK *4555:RESET_B 0
31 *4558:CLK *800:14 9.66021e-05
32 *4558:CLK *1000:22 6.52906e-05
33 *4558:CLK *1000:24 2.97004e-06
34 *4562:CLK *982:77 0.000188727
35 *4562:CLK *984:16 0
36 *4717:A *5000:A 0
37 *4717:A *947:10 8.09986e-05
38 *625:10 *4869:A 0.000161529
39 *625:10 *5000:A 0
40 *625:10 *947:10 8.61056e-05
41 *625:20 *5000:A 8.61056e-05
42 *625:20 *947:10 0
43 *625:39 *4009:A0 0.000160401
44 *625:39 *4046:C_N 7.48954e-05
45 *625:39 *662:8 6.52265e-05
46 *625:39 *1024:20 0.000207896
47 *625:51 *4135:A_N 9.98776e-05
48 *625:51 *4498:RESET_B 2.88008e-05
49 *625:51 *4506:SET_B 0.000135454
50 *625:51 *4514:RESET_B 4.37107e-05
51 *625:89 *4869:A 0.000111455
52 *625:89 *701:99 0.000180373
53 *625:98 *701:99 7.56919e-05
54 *625:102 *4020:A0 0
55 *625:142 *4685:RESET_B 2.40101e-05
56 *4030:S *625:39 0.000143833
57 *4055:A *625:39 4.66108e-05
58 *4157:C1 *625:20 0.000264544
59 *4157:C1 *625:24 1.83756e-05
60 *4684:D *625:102 5.39961e-05
61 *4684:D *625:135 0.000152813
62 *4704:A *625:10 0.000236355
63 *4704:A *625:20 0.000523142
64 *3:30 *4562:CLK 0
65 *267:24 *625:20 0.000202109
66 *267:30 *625:20 0
67 *268:10 *625:39 8.23472e-05
68 *268:32 *625:24 5.05521e-05
69 *268:81 *625:20 2.48188e-05
70 *268:81 *625:24 0.000170118
71 *270:12 *625:51 9.4087e-05
72 *270:18 *625:51 0
73 *270:131 *625:20 0.000273878
74 *270:131 *625:102 0
75 *272:16 *625:39 0.000431333
76 *274:10 *4507:CLK 6.73665e-05
77 *274:10 *625:39 1.38422e-05
78 *275:12 *4507:CLK 9.428e-05
79 *275:12 *625:39 8.87814e-05
*RES
1 *4704:X *625:4 1.6 
2 *625:4 *625:10 8.825 
3 *625:10 *625:12 2 
4 *625:12 *625:20 14.785 
5 *625:20 *625:24 6.245 
6 *625:24 *4507:CLK 5.49 
7 *625:24 *625:39 15.545 
8 *625:39 *625:51 12.7 
9 *625:51 *4514:CLK 2.05 
10 *625:51 *4498:CLK 1.6 
11 *625:39 *4522:CLK 1.6 
12 *625:20 *4523:CLK 1.6 
13 *625:12 *4499:CLK 1.6 
14 *625:10 *4717:A 5.49 
15 *625:4 *625:89 3.9 
16 *625:89 *4684:CLK 1.6 
17 *625:89 *625:98 3.485 
18 *625:98 *625:102 4.145 
19 *625:102 *4515:CLK 1.6 
20 *625:102 *625:109 2.865 
21 *625:109 *4562:CLK 12.65 
22 *625:109 *4554:CLK 4.12 
23 *625:98 *625:135 6.41 
24 *625:135 *4685:CLK 1.6 
25 *625:135 *625:142 8.385 
26 *625:142 *4558:CLK 8.975 
27 *625:142 *4555:CLK 1.6 
*END

*D_NET *626 0.0156631
*CONN
*I *4720:A I *D sky130_fd_sc_hd__clkinv_2
*I *4574:CLK I *D sky130_fd_sc_hd__dfrtp_2
*I *4566:CLK I *D sky130_fd_sc_hd__dfrtp_2
*I *4595:CLK I *D sky130_fd_sc_hd__dfrtp_2
*I *4603:CLK I *D sky130_fd_sc_hd__dfrtp_2
*I *4606:CLK I *D sky130_fd_sc_hd__dfrtp_2
*I *4614:CLK I *D sky130_fd_sc_hd__dfrtp_2
*I *4602:CLK I *D sky130_fd_sc_hd__dfrtp_2
*I *4570:CLK I *D sky130_fd_sc_hd__dfrtp_2
*I *4578:CLK I *D sky130_fd_sc_hd__dfrtp_2
*I *4586:CLK I *D sky130_fd_sc_hd__dfrtp_2
*I *4610:CLK I *D sky130_fd_sc_hd__dfrtp_2
*I *4594:CLK I *D sky130_fd_sc_hd__dfrtp_2
*I *4705:X O *D sky130_fd_sc_hd__clkbuf_8
*CAP
1 *4720:A 1.96054e-05
2 *4574:CLK 8.972e-05
3 *4566:CLK 3.63983e-05
4 *4595:CLK 0
5 *4603:CLK 0.000281416
6 *4606:CLK 4.60526e-05
7 *4614:CLK 0
8 *4602:CLK 0
9 *4570:CLK 0.000192599
10 *4578:CLK 0.00029304
11 *4586:CLK 3.61957e-05
12 *4610:CLK 0.00019206
13 *4594:CLK 8.92648e-05
14 *4705:X 0.000179941
15 *626:142 0.000541596
16 *626:136 0.000520364
17 *626:112 0.000434665
18 *626:97 0.000466152
19 *626:90 0.000877238
20 *626:53 0.00063011
21 *626:42 0.00112652
22 *626:27 0.0012161
23 *626:25 0.00028887
24 *626:14 0.000560475
25 *626:12 0.000934021
26 *626:8 0.000328333
27 *4566:CLK *4566:D 8.65961e-05
28 *4570:CLK *4578:RESET_B 5.10957e-05
29 *4570:CLK *1013:42 5.72742e-05
30 *4570:CLK *1013:91 9.27326e-05
31 *4570:CLK *1021:64 0.000127069
32 *4574:CLK *4068:A0 0
33 *4574:CLK *999:16 0
34 *4574:CLK *1060:12 6.18754e-05
35 *4578:CLK *4578:RESET_B 2.34022e-05
36 *4578:CLK *987:49 2.63819e-05
37 *4594:CLK *1096:10 4.38278e-05
38 *4603:CLK *4161:A1 1.03572e-05
39 *4603:CLK *4161:B2 0.000131731
40 *4603:CLK *4167:B1 4.66108e-05
41 *4603:CLK *982:10 0.000114113
42 *4603:CLK *1019:52 0.000118081
43 *4606:CLK *4248:A1 0.000108322
44 *4606:CLK *4959:A 5.16418e-05
45 *4610:CLK *4104:A1 0
46 *4610:CLK *4146:A1 8.68767e-06
47 *4610:CLK *4184:B1 3.00915e-05
48 *4720:A *1021:42 3.74161e-05
49 *626:8 *1029:55 1.91597e-05
50 *626:12 *4145:C 0.000181376
51 *626:12 *999:16 0
52 *626:12 *1021:139 1.1561e-05
53 *626:14 *4145:C 4.82919e-05
54 *626:14 *1096:10 0.000187264
55 *626:25 *4146:A1 1.52507e-05
56 *626:25 *4184:B1 6.954e-05
57 *626:25 *1021:52 0
58 *626:27 *4146:A1 2.90745e-05
59 *626:27 *4184:B1 3.11596e-05
60 *626:42 *4146:B2 0.000184866
61 *626:42 *4586:D 0.000123225
62 *626:42 *1088:8 3.82323e-06
63 *626:53 *4578:RESET_B 8.50976e-05
64 *626:90 *4145:C 0.000184712
65 *626:90 *4948:A 0.000161529
66 *626:90 *1026:69 3.1835e-05
67 *626:97 *4614:D 3.30017e-05
68 *626:97 *4614:RESET_B 1.95248e-05
69 *626:112 *4614:RESET_B 0.000157957
70 *626:112 *4727:A 6.52265e-05
71 *626:136 *999:16 0
72 *626:136 *1021:139 6.10014e-05
73 *626:142 *4068:A0 0
74 *626:142 *729:10 0
75 *626:142 *999:16 0
76 *626:142 *1021:42 0.000163199
77 *626:142 *1060:12 0.000200653
78 *4146:A2 *626:42 8.5108e-06
79 *4148:A1 *4610:CLK 9.58678e-06
80 *4167:A3 *4603:CLK 0.000163199
81 *4247:A2 *4606:CLK 0.000159964
82 *4247:A2 *626:97 4.82919e-05
83 *4247:A2 *626:112 0.000220453
84 *4594:D *626:25 0.000267591
85 *4697:A *626:12 0.00018305
86 *4740:A *4610:CLK 9.27495e-05
87 *4743:A *626:112 8.65961e-05
88 *4744:A *626:97 0.000455634
89 *4744:A *626:112 0.000497676
90 *4984:A *626:53 6.72143e-05
91 *3:30 *4570:CLK 0.000102319
92 *3:30 *626:53 7.50842e-05
93 *280:34 *626:42 3.75272e-05
94 *280:51 *4610:CLK 5.94884e-05
95 *280:51 *626:42 2.1551e-05
96 *295:16 *626:25 0
97 *296:12 *4610:CLK 5.90469e-05
98 *308:18 *4603:CLK 3.65279e-05
99 *314:25 *4603:CLK 2.50702e-05
100 *613:22 *626:8 0.000309607
*RES
1 *4705:X *626:8 6.81 
2 *626:8 *626:12 4.4 
3 *626:12 *626:14 4.935 
4 *626:14 *4594:CLK 3.085 
5 *626:14 *626:25 6.44 
6 *626:25 *626:27 1.38 
7 *626:27 *4610:CLK 7.74 
8 *626:27 *626:42 12.8 
9 *626:42 *4586:CLK 2.215 
10 *626:42 *626:53 4.91 
11 *626:53 *4578:CLK 7.08 
12 *626:53 *4570:CLK 9.03 
13 *626:25 *4602:CLK 3.6 
14 *626:12 *626:90 9.9 
15 *626:90 *4614:CLK 1.6 
16 *626:90 *626:97 6.315 
17 *626:97 *4606:CLK 7.49 
18 *626:97 *626:112 5.985 
19 *626:112 *4603:CLK 11.495 
20 *626:112 *4595:CLK 1.6 
21 *626:8 *626:136 3.635 
22 *626:136 *626:142 9.965 
23 *626:142 *4566:CLK 4.395 
24 *626:142 *4574:CLK 5.49 
25 *626:136 *4720:A 2.05 
*END

*D_NET *627 0.0182221
*CONN
*I *4683:CLK I *D sky130_fd_sc_hd__dfrtp_2
*I *4679:CLK I *D sky130_fd_sc_hd__dfrtp_2
*I *4682:CLK I *D sky130_fd_sc_hd__dfrtp_2
*I *4677:CLK I *D sky130_fd_sc_hd__dfstp_2
*I *4618:CLK I *D sky130_fd_sc_hd__dfrtp_2
*I *4681:CLK I *D sky130_fd_sc_hd__dfrtp_2
*I *4674:CLK I *D sky130_fd_sc_hd__dfrtp_2
*I *4563:CLK I *D sky130_fd_sc_hd__dfrtp_2
*I *4582:CLK I *D sky130_fd_sc_hd__dfrtp_2
*I *4590:CLK I *D sky130_fd_sc_hd__dfrtp_2
*I *4598:CLK I *D sky130_fd_sc_hd__dfrtp_2
*I *4587:CLK I *D sky130_fd_sc_hd__dfrtp_2
*I *4579:CLK I *D sky130_fd_sc_hd__dfrtp_2
*I *4675:CLK I *D sky130_fd_sc_hd__dfrtp_2
*I *4571:CLK I *D sky130_fd_sc_hd__dfrtp_2
*I *4706:X O *D sky130_fd_sc_hd__clkbuf_8
*CAP
1 *4683:CLK 0.000112022
2 *4679:CLK 6.52943e-05
3 *4682:CLK 0.000118706
4 *4677:CLK 0
5 *4618:CLK 0.000182818
6 *4681:CLK 2.08101e-05
7 *4674:CLK 3.07736e-05
8 *4563:CLK 2.08101e-05
9 *4582:CLK 0
10 *4590:CLK 0.000158809
11 *4598:CLK 0.000418361
12 *4587:CLK 0
13 *4579:CLK 0.000116357
14 *4675:CLK 0.000185733
15 *4571:CLK 0.000167027
16 *4706:X 0.000167027
17 *627:159 0.000795152
18 *627:146 0.000833823
19 *627:133 0.000525152
20 *627:131 0.000602785
21 *627:118 0.000901642
22 *627:80 0.000739895
23 *627:76 0.00124396
24 *627:54 0.000418361
25 *627:52 0.000699991
26 *627:37 0.00117338
27 *627:22 0.00125518
28 *627:20 0.000206775
29 *627:16 0.000615388
30 *4590:CLK *4245:B1 0
31 *4590:CLK *4582:RESET_B 5.78829e-05
32 *4590:CLK *1057:28 9.43195e-05
33 *4598:CLK *4587:RESET_B 2.20753e-05
34 *4598:CLK *1005:36 0.000560893
35 *4618:CLK *711:79 0
36 *4618:CLK *1050:14 1.7902e-05
37 *4618:CLK *1050:22 2.97561e-05
38 *4674:CLK *1005:16 1.56428e-05
39 *4675:CLK *4476:C 0
40 *4675:CLK *1026:16 0
41 *4679:CLK *3982:A1 4.36234e-05
42 *4683:CLK *694:14 8.65905e-05
43 *627:20 *1027:12 5.69248e-06
44 *627:37 *1027:24 9.23863e-05
45 *627:52 *4164:D 5.20968e-05
46 *627:52 *1003:16 0
47 *627:76 *4073:A1 3.16307e-05
48 *627:76 *1003:16 0
49 *627:80 *4065:A0 7.38927e-05
50 *627:80 *4073:A1 3.99879e-05
51 *627:80 *4100:A0 7.20102e-05
52 *627:80 *4100:S 4.77757e-05
53 *627:80 *4582:D 7.90742e-05
54 *627:80 *4804:A 4.82919e-05
55 *627:80 *4942:A 0.00065602
56 *627:80 *1128:26 0.000124592
57 *627:118 *3965:A_N 0.00012657
58 *627:118 *3965:C 5.05437e-05
59 *627:118 *3986:A 0.000276441
60 *627:146 *4677:D 0.000164874
61 *627:146 *4677:SET_B 2.40101e-05
62 *627:146 *1050:14 6.58423e-05
63 *627:159 *4677:D 1.61831e-05
64 *3966:B *4681:CLK 0
65 *3966:B *627:118 0.000187311
66 *3974:B *4618:CLK 0
67 *3982:B1_N *4679:CLK 1.12643e-05
68 *3982:B1_N *4682:CLK 0.000162318
69 *4247:C1 *4590:CLK 3.16468e-05
70 *4476:A *4571:CLK 0.0001249
71 *4476:A *627:20 0
72 *4476:A *627:22 0
73 *4476:A *627:37 8.65905e-05
74 *4476:A *627:118 1.19928e-05
75 *4477:B1_N *627:37 5.60082e-05
76 *4579:D *4579:CLK 3.00381e-05
77 *4579:D *627:37 4.16262e-05
78 *4579:D *627:52 1.01661e-05
79 *4579:D *627:76 5.12942e-05
80 *4587:D *4579:CLK 4.99619e-05
81 *4587:D *627:52 3.68682e-05
82 *4590:D *4590:CLK 8.84382e-05
83 *4674:D *627:37 0.000124895
84 *4679:D *4679:CLK 5.05521e-05
85 *4681:D *627:131 0.000164024
86 *4683:D *4618:CLK 0.000139933
87 *4683:D *4683:CLK 9.14049e-05
88 *4683:D *627:133 0.000225182
89 *4706:A *4675:CLK 0.000220476
90 *4706:A *627:20 0.00018406
91 *4706:A *627:22 0.000137571
92 *4706:A *627:118 0.000271308
93 *4935:A *627:20 0
94 *248:12 *4618:CLK 0.00013521
95 *248:43 *627:118 8.82557e-05
96 *248:47 *627:118 8.08654e-05
97 *250:6 *627:118 8.23457e-05
98 *251:10 *627:131 1.29866e-05
99 *251:23 *4682:CLK 0
100 *251:23 *627:159 0
101 *251:30 *627:159 6.20088e-05
102 *251:43 *4679:CLK 0.000123225
103 *251:43 *4682:CLK 7.21296e-06
104 *251:43 *627:159 0.000173382
105 *252:10 *627:146 7.42809e-05
106 *252:10 *627:159 3.98489e-05
*RES
1 *4706:X *4571:CLK 6.065 
2 *4706:X *627:16 1.6 
3 *627:16 *627:20 4.4 
4 *627:20 *627:22 1.635 
5 *627:22 *4675:CLK 6.705 
6 *627:22 *627:37 13.835 
7 *627:37 *4579:CLK 3.805 
8 *627:37 *627:52 3.38 
9 *627:52 *627:54 2 
10 *627:54 *4587:CLK 1.6 
11 *627:54 *4598:CLK 10.69 
12 *627:52 *627:76 9.62 
13 *627:76 *627:80 11.16 
14 *627:80 *4590:CLK 8.645 
15 *627:80 *4582:CLK 1.6 
16 *627:76 *4563:CLK 1.96 
17 *627:20 *4674:CLK 4.05 
18 *627:16 *627:118 10.8 
19 *627:118 *4681:CLK 1.96 
20 *627:118 *627:131 6.95 
21 *627:131 *627:133 2.655 
22 *627:133 *4618:CLK 7.785 
23 *627:133 *627:146 6.59 
24 *627:146 *4677:CLK 1.6 
25 *627:146 *627:159 9.89 
26 *627:159 *4682:CLK 5.745 
27 *627:159 *4679:CLK 5.43 
28 *627:131 *4683:CLK 5.88 
*END

*D_NET *628 0.0136419
*CONN
*I *4666:CLK I *D sky130_fd_sc_hd__dfrtp_2
*I *4667:CLK I *D sky130_fd_sc_hd__dfrtp_2
*I *4659:CLK I *D sky130_fd_sc_hd__dfrtp_2
*I *4658:CLK I *D sky130_fd_sc_hd__dfrtp_2
*I *4643:CLK I *D sky130_fd_sc_hd__dfrtp_2
*I *4635:CLK I *D sky130_fd_sc_hd__dfrtp_2
*I *4634:CLK I *D sky130_fd_sc_hd__dfrtp_2
*I *4626:CLK I *D sky130_fd_sc_hd__dfrtp_2
*I *4678:CLK I *D sky130_fd_sc_hd__dfrtp_2
*I *4642:CLK I *D sky130_fd_sc_hd__dfrtp_2
*I *4650:CLK I *D sky130_fd_sc_hd__dfrtp_2
*I *4721:A I *D sky130_fd_sc_hd__clkbuf_8
*I *4627:CLK I *D sky130_fd_sc_hd__dfrtp_2
*I *4651:CLK I *D sky130_fd_sc_hd__dfrtp_2
*I *4707:X O *D sky130_fd_sc_hd__clkbuf_8
*CAP
1 *4666:CLK 0
2 *4667:CLK 0
3 *4659:CLK 0.000129861
4 *4658:CLK 0.000167058
5 *4643:CLK 0
6 *4635:CLK 0
7 *4634:CLK 0
8 *4626:CLK 0
9 *4678:CLK 0.000576373
10 *4642:CLK 0
11 *4650:CLK 0.000122663
12 *4721:A 0
13 *4627:CLK 8.34939e-05
14 *4651:CLK 0.000237433
15 *4707:X 0
16 *628:129 0.000228138
17 *628:125 0.000372719
18 *628:110 0.000528272
19 *628:81 0.00119625
20 *628:73 0.000710197
21 *628:50 0.000398821
22 *628:42 0.000381095
23 *628:38 0.000348434
24 *628:27 0.000295449
25 *628:25 0.000520315
26 *628:23 0.000461535
27 *628:10 0.000341628
28 *628:4 0.000190967
29 *4650:CLK *5010:A 0.000434841
30 *4651:CLK *4444:A0 0.000137578
31 *4651:CLK *4643:RESET_B 0
32 *4651:CLK *4731:A 0
33 *4651:CLK *5011:A 2.75229e-05
34 *4658:CLK *4459:A1 8.97564e-05
35 *4658:CLK *717:73 0
36 *4659:CLK *4468:A0 5.30673e-05
37 *4659:CLK *4659:D 0.000143266
38 *4659:CLK *4667:D 0
39 *4678:CLK *3975:A 0.000138808
40 *4678:CLK *694:76 0.000422936
41 *4678:CLK *694:97 0.000199833
42 *628:10 *4444:A0 0.00017688
43 *628:10 *808:6 8.65961e-05
44 *628:25 *4635:RESET_B 4.1235e-05
45 *628:25 *720:91 6.71882e-05
46 *628:38 *4626:RESET_B 0.000103592
47 *628:38 *5041:A 5.16348e-05
48 *628:38 *710:16 0.000220445
49 *628:42 *4393:A1 6.1357e-05
50 *628:42 *4402:A1 0.000164874
51 *628:50 *4393:A1 0
52 *628:50 *4402:A1 0
53 *628:50 *5010:A 1.61831e-05
54 *628:73 *4626:RESET_B 0.000183745
55 *628:81 *4626:RESET_B 0.000116127
56 *628:110 *4731:A 0.000200878
57 *628:110 *778:12 4.7101e-05
58 *628:110 *808:6 0.000203178
59 *628:125 *4659:D 6.6925e-05
60 *628:125 *4731:A 0.000457356
61 *628:129 *4659:D 0.000132089
62 *3978:B1_N *4678:CLK 0.000129274
63 *4401:A *628:38 0
64 *4401:B *628:38 0
65 *4401:B *628:73 0
66 *4401:B *628:81 9.66106e-05
67 *4402:A0 *628:42 0.000272984
68 *4402:S *628:38 5.12017e-06
69 *4402:S *628:42 0.000239813
70 *4451:S *4658:CLK 6.74577e-05
71 *4467:S *4659:CLK 0
72 *4467:S *628:129 0
73 *4635:D *628:25 6.88253e-05
74 *4635:D *628:27 5.05437e-05
75 *4635:D *628:38 7.23533e-05
76 *4642:D *628:50 0
77 *4643:D *4651:CLK 5.20968e-05
78 *4678:D *4678:CLK 7.60965e-05
79 *4707:A *4651:CLK 0
80 *4839:A *628:125 0.0001249
81 *4865:A *628:10 8.65961e-05
82 *4865:A *628:110 0.00041967
83 *259:29 *628:42 1.60203e-05
84 *259:35 *4651:CLK 0
85 *259:48 *4651:CLK 7.44453e-05
86 *260:55 *4650:CLK 0.000169467
87 *260:55 *4658:CLK 0.000164686
88 *260:55 *628:50 8.65961e-05
89 *260:68 *628:129 0
90 *262:60 *628:38 3.26822e-05
*RES
1 *4707:X *628:4 1.6 
2 *628:4 *628:10 4.94 
3 *628:10 *4651:CLK 8.235 
4 *628:10 *628:23 2 
5 *628:23 *628:25 7.35 
6 *628:25 *628:27 1.14 
7 *628:27 *4627:CLK 2.74 
8 *628:27 *628:38 5.93 
9 *628:38 *628:42 6.245 
10 *628:42 *628:50 8.725 
11 *628:50 *4721:A 1.6 
12 *628:50 *4650:CLK 6.115 
13 *628:42 *4642:CLK 1.6 
14 *628:38 *628:73 4.145 
15 *628:73 *628:81 8.685 
16 *628:81 *4678:CLK 14.47 
17 *628:81 *4626:CLK 1.6 
18 *628:73 *4634:CLK 1.6 
19 *628:25 *4635:CLK 1.6 
20 *628:23 *4643:CLK 1.6 
21 *628:4 *628:110 4.935 
22 *628:110 *4658:CLK 9.53 
23 *628:110 *628:125 7.365 
24 *628:125 *628:129 4.145 
25 *628:129 *4659:CLK 6.39 
26 *628:129 *4667:CLK 3.6 
27 *628:125 *4666:CLK 1.6 
*END

*D_NET *629 0.0171679
*CONN
*I *4668:CLK I *D sky130_fd_sc_hd__dfrtp_2
*I *4661:CLK I *D sky130_fd_sc_hd__dfrtp_2
*I *4669:CLK I *D sky130_fd_sc_hd__dfrtp_2
*I *4660:CLK I *D sky130_fd_sc_hd__dfrtp_2
*I *4652:CLK I *D sky130_fd_sc_hd__dfrtp_2
*I *4644:CLK I *D sky130_fd_sc_hd__dfrtp_2
*I *4636:CLK I *D sky130_fd_sc_hd__dfrtp_2
*I *4645:CLK I *D sky130_fd_sc_hd__dfrtp_2
*I *4628:CLK I *D sky130_fd_sc_hd__dfrtp_2
*I *4629:CLK I *D sky130_fd_sc_hd__dfrtp_2
*I *4619:CLK I *D sky130_fd_sc_hd__dfrtp_2
*I *4680:CLK I *D sky130_fd_sc_hd__dfrtp_2
*I *4621:CLK I *D sky130_fd_sc_hd__dfrtp_2
*I *4653:CLK I *D sky130_fd_sc_hd__dfrtp_2
*I *4722:A I *D sky130_fd_sc_hd__clkbuf_4
*I *4708:X O *D sky130_fd_sc_hd__clkbuf_8
*CAP
1 *4668:CLK 0
2 *4661:CLK 0.000409209
3 *4669:CLK 7.55178e-05
4 *4660:CLK 2.08101e-05
5 *4652:CLK 0
6 *4644:CLK 0
7 *4636:CLK 0.000238058
8 *4645:CLK 0
9 *4628:CLK 0
10 *4629:CLK 0
11 *4619:CLK 3.62364e-05
12 *4680:CLK 0.000160832
13 *4621:CLK 0
14 *4653:CLK 2.75472e-05
15 *4722:A 0.000243018
16 *4708:X 1.33039e-05
17 *629:158 0.000620404
18 *629:156 0.000355194
19 *629:143 0.000901012
20 *629:118 0.000313408
21 *629:79 0.000613195
22 *629:70 0.00173148
23 *629:60 0.00168263
24 *629:52 0.000427235
25 *629:50 0.000778943
26 *629:35 0.000807837
27 *629:33 0.000239433
28 *629:27 0.000121353
29 *629:25 0.000935524
30 *629:6 0.000512591
31 *4636:CLK *4395:A1 0.000471317
32 *4636:CLK *4628:RESET_B 0.000135634
33 *4636:CLK *4636:RESET_B 0.000114789
34 *4653:CLK *4645:RESET_B 1.52184e-05
35 *4660:CLK *4660:RESET_B 0
36 *4661:CLK *4470:A0 1.76834e-05
37 *4661:CLK *4669:RESET_B 4.41363e-05
38 *4669:CLK *4453:A0 0
39 *4680:CLK *836:39 3.89982e-05
40 *4722:A *4446:A0 8.65905e-05
41 *4722:A *4645:D 0.000163204
42 *629:6 *4415:A1 8.8266e-05
43 *629:6 *4446:A0 2.55503e-05
44 *629:25 *4415:A1 0.000173722
45 *629:25 *4446:A0 0.000181023
46 *629:33 *4643:RESET_B 0.000101317
47 *629:35 *4643:RESET_B 2.42236e-05
48 *629:35 *4645:RESET_B 5.02217e-05
49 *629:50 *4645:RESET_B 0.000226276
50 *629:60 *4628:D 0.000120607
51 *629:60 *4629:D 1.91597e-05
52 *629:70 *4629:D 7.35729e-05
53 *629:118 *4395:A1 0.000157968
54 *629:118 *4636:RESET_B 0.000127873
55 *629:143 *4644:RESET_B 3.73477e-05
56 *629:143 *4660:RESET_B 0
57 *629:156 *4453:A1 0
58 *629:156 *4644:RESET_B 8.10355e-05
59 *629:156 *4660:D 2.24336e-05
60 *629:156 *4661:RESET_B 0.000231557
61 *629:158 *4453:A0 0
62 *629:158 *4661:RESET_B 0.000140905
63 *629:158 *721:100 0
64 *3982:B1_N *4680:CLK 0
65 *4197:B1 *629:70 0
66 *4226:A2 *629:70 7.00889e-06
67 *4227:A0 *629:70 5.18105e-05
68 *4227:S *629:70 5.05521e-05
69 *4396:B2 *629:70 9.09197e-05
70 *4400:A2 *4619:CLK 0.000198934
71 *4400:A2 *4680:CLK 7.21296e-06
72 *4400:A2 *629:79 7.00066e-05
73 *4424:A1 *629:70 5.30732e-05
74 *4446:A1 *4653:CLK 1.94805e-05
75 *4446:A1 *629:25 0.000160635
76 *4446:A1 *629:33 6.95335e-05
77 *4446:A1 *629:35 4.62396e-05
78 *4470:S *4661:CLK 0
79 *4474:S *629:70 0.000162325
80 *4474:S *629:79 0.000680678
81 *4621:D *629:70 8.40269e-05
82 *4652:D *629:143 0.000123286
83 *4707:A *4722:A 0.000114492
84 *4707:A *629:6 4.99619e-05
85 *4810:A *4722:A 9.37731e-05
86 *4812:A *629:143 1.56428e-05
87 *4826:A *4661:CLK 7.76343e-05
88 *4826:A *4669:CLK 0
89 *4826:A *629:158 0
90 *5002:A *629:60 4.82919e-05
91 *258:16 *629:79 6.75724e-05
92 *261:10 *4680:CLK 0
93 *261:10 *629:79 0
94 *261:18 *629:79 0
95 *263:45 *4653:CLK 0
96 *552:18 *629:70 6.42013e-05
97 *574:26 *629:70 0.000221785
98 *580:21 *4619:CLK 0.000119631
99 *613:106 *629:60 0.000183738
*RES
1 *4708:X *629:6 2.395 
2 *629:6 *4722:A 10.445 
3 *629:6 *629:25 5.745 
4 *629:25 *629:27 0.36 
5 *629:27 *629:33 4.94 
6 *629:33 *629:35 1.635 
7 *629:35 *4653:CLK 4.215 
8 *629:35 *629:50 10.31 
9 *629:50 *629:52 0.795 
10 *629:52 *629:60 11.08 
11 *629:60 *629:70 24.125 
12 *629:70 *4621:CLK 3.6 
13 *629:70 *629:79 10.05 
14 *629:79 *4680:CLK 6.195 
15 *629:79 *4619:CLK 5.43 
16 *629:60 *4629:CLK 1.6 
17 *629:52 *4628:CLK 1.6 
18 *629:50 *4645:CLK 1.6 
19 *629:33 *629:118 4.52 
20 *629:118 *4636:CLK 8.95 
21 *629:118 *4644:CLK 1.6 
22 *629:27 *4652:CLK 1.6 
23 *629:25 *629:143 8.175 
24 *629:143 *4660:CLK 1.96 
25 *629:143 *629:156 6.83 
26 *629:156 *629:158 2.7825 
27 *629:158 *4669:CLK 4.8525 
28 *629:158 *4661:CLK 8.7975 
29 *629:156 *4668:CLK 3.6 
*END

*D_NET *630 0.00148719
*CONN
*I *3991:A0 I *D sky130_fd_sc_hd__mux2_1
*I *4133:A1 I *D sky130_fd_sc_hd__a221o_2
*I *4490:Q O *D sky130_fd_sc_hd__dfstp_2
*CAP
1 *3991:A0 0.000274883
2 *4133:A1 0
3 *4490:Q 0.000182882
4 *630:10 0.000457765
5 *3991:A0 *4056:A0 1.34503e-05
6 *3991:A0 *4133:B2 7.4538e-05
7 *3991:A0 *4939:A 0
8 *3991:A0 *902:51 4.99619e-05
9 *3991:A0 *1048:107 0
10 *630:10 *4133:B2 4.43871e-06
11 *4133:B1 *630:10 0.000139924
12 *4133:C1 *630:10 0
13 *4546:D *3991:A0 5.04256e-05
14 *270:18 *3991:A0 0
15 *273:26 *3991:A0 0
16 *275:30 *3991:A0 0
17 *275:30 *630:10 0
18 *622:109 *630:10 0.000238919
*RES
1 *4490:Q *630:10 7.665 
2 *630:10 *4133:A1 3.6 
3 *630:10 *3991:A0 8.325 
*END

*D_NET *631 0.000905594
*CONN
*I *4152:A I *D sky130_fd_sc_hd__and2_2
*I *4819:A I *D sky130_fd_sc_hd__dlygate4sd3_1
*I *4491:Q O *D sky130_fd_sc_hd__dfrtp_2
*CAP
1 *4152:A 0.000130897
2 *4819:A 8.65687e-05
3 *4491:Q 0.000100733
4 *631:8 0.000318198
5 *4152:A *985:16 0
6 *4819:A *3992:A0 1.83847e-05
7 *4819:A *985:16 3.45588e-05
8 *4026:S *4152:A 0
9 *4026:S *631:8 0
10 *4158:A1 *4152:A 4.63702e-05
11 *4158:A1 *631:8 4.18603e-06
12 *285:38 *4152:A 0
13 *285:38 *631:8 0
14 *289:18 *4819:A 0.000165698
*RES
1 *4491:Q *631:8 4.98 
2 *631:8 *4819:A 6.12 
3 *631:8 *4152:A 6 
*END

*D_NET *632 0.000946158
*CONN
*I *4172:A I *D sky130_fd_sc_hd__and2_2
*I *4806:A I *D sky130_fd_sc_hd__dlygate4sd3_1
*I *4492:Q O *D sky130_fd_sc_hd__dfrtp_2
*CAP
1 *4172:A 7.61863e-05
2 *4806:A 0.00018615
3 *4492:Q 3.58834e-05
4 *632:8 0.000298219
5 *4172:A *4177:A2 0
6 *4806:A *4177:A2 0
7 *4806:A *4492:RESET_B 9.66106e-05
8 *4806:A *947:34 6.96579e-05
9 *272:149 *4172:A 6.21553e-05
10 *272:149 *4806:A 9.37731e-05
11 *274:22 *4172:A 0
12 *274:22 *4806:A 0
13 *274:30 *632:8 2.75229e-05
*RES
1 *4492:Q *632:8 4.05 
2 *632:8 *4806:A 7.74 
3 *632:8 *4172:A 4.98 
*END

*D_NET *633 0.0011259
*CONN
*I *4198:A I *D sky130_fd_sc_hd__and2_2
*I *4814:A I *D sky130_fd_sc_hd__dlygate4sd3_1
*I *4493:Q O *D sky130_fd_sc_hd__dfrtp_2
*CAP
1 *4198:A 0.000126211
2 *4814:A 0.00012103
3 *4493:Q 6.04047e-05
4 *633:8 0.000307646
5 *4198:A *4549:SET_B 2.97122e-05
6 *4198:A *958:109 0.000104144
7 *4814:A *4549:SET_B 4.19059e-05
8 *4814:A *1037:22 5.92849e-05
9 *3994:S *4198:A 0.000206123
10 *4204:A2 *4198:A 0
11 *4204:A2 *4814:A 0
12 *349:16 *4198:A 1.88904e-05
13 *621:37 *633:8 5.05521e-05
*RES
1 *4493:Q *633:8 4.395 
2 *633:8 *4814:A 6.255 
3 *633:8 *4198:A 7.02 
*END

*D_NET *634 0.00219244
*CONN
*I *4232:D_N I *D sky130_fd_sc_hd__or4b_2
*I *4848:A I *D sky130_fd_sc_hd__dlygate4sd3_1
*I *4494:Q O *D sky130_fd_sc_hd__dfrtp_2
*CAP
1 *4232:D_N 0
2 *4848:A 0.000395669
3 *4494:Q 0.000261138
4 *634:16 0.000656807
5 *4848:A *3995:A0 0
6 *4848:A *4023:A0 0
7 *4848:A *4233:B1 5.71709e-05
8 *4848:A *4233:C1 0
9 *4848:A *4871:A 5.21615e-05
10 *4848:A *1017:8 0
11 *4848:A *1017:12 0
12 *4848:A *1028:12 8.65905e-05
13 *634:16 *4023:A0 2.99445e-05
14 *634:16 *4023:A1 0.000159741
15 *634:16 *4518:RESET_B 0
16 *634:16 *1010:58 5.20968e-05
17 *634:16 *1018:101 8.23457e-05
18 *634:16 *1040:25 0
19 *4052:S *634:16 0.00012173
20 *4236:A *4848:A 0.00015045
21 *4236:A *634:16 0
22 *266:26 *4848:A 8.65905e-05
*RES
1 *4494:Q *634:16 11.15 
2 *634:16 *4848:A 12.62 
3 *634:16 *4232:D_N 1.6 
*END

*D_NET *635 0.00223755
*CONN
*I *4281:A1 I *D sky130_fd_sc_hd__a221o_2
*I *4879:A I *D sky130_fd_sc_hd__dlygate4sd3_1
*I *4495:Q O *D sky130_fd_sc_hd__dfrtp_2
*CAP
1 *4281:A1 0.000106985
2 *4879:A 0.000185594
3 *4495:Q 0.000177339
4 *635:10 0.000469918
5 *4281:A1 *3996:A0 0.000119756
6 *4281:A1 *3996:A1 0.000187402
7 *4281:A1 *4281:A2 2.91343e-05
8 *4281:A1 *982:111 8.8266e-05
9 *4879:A *3996:A0 8.40269e-05
10 *4034:S *635:10 0.000114433
11 *4286:B1 *4281:A1 0.000399549
12 *4286:B1 *635:10 0.000116853
13 *4286:B2 *4281:A1 4.21314e-05
14 *4286:B2 *635:10 0.000116165
*RES
1 *4495:Q *635:10 6.81 
2 *635:10 *4879:A 6.465 
3 *635:10 *4281:A1 8.46 
*END

*D_NET *636 0.00163748
*CONN
*I *4889:A I *D sky130_fd_sc_hd__dlygate4sd3_1
*I *4335:A1 I *D sky130_fd_sc_hd__a2111o_2
*I *4496:Q O *D sky130_fd_sc_hd__dfrtp_2
*CAP
1 *4889:A 3.40752e-05
2 *4335:A1 0.000277633
3 *4496:Q 0.000214501
4 *636:10 0.000526209
5 *4335:A1 *4496:RESET_B 1.10435e-05
6 *4335:A1 *1037:8 4.05363e-05
7 *4889:A *3997:S 8.53011e-05
8 *636:10 *4336:A1 0.000111607
9 *636:10 *4496:RESET_B 5.7626e-05
10 *4044:S *4335:A1 0.000267554
11 *275:42 *636:10 1.1392e-05
*RES
1 *4496:Q *636:10 7.47 
2 *636:10 *4335:A1 7.755 
3 *636:10 *4889:A 4.395 
*END

*D_NET *637 0.00126014
*CONN
*I *4365:B2 I *D sky130_fd_sc_hd__a221o_2
*I *4882:A I *D sky130_fd_sc_hd__dlygate4sd3_1
*I *4497:Q O *D sky130_fd_sc_hd__dfrtp_2
*CAP
1 *4365:B2 0.000218115
2 *4882:A 5.62882e-05
3 *4497:Q 0.000274403
4 *4365:B2 *4365:B1 2.49764e-05
5 *4365:B2 *4832:A 5.53249e-06
6 *4365:B2 *661:10 6.55328e-05
7 *4882:A *4497:RESET_B 0.00016569
8 *4362:A2 *4365:B2 0
9 *4362:B2 *4365:B2 0.000113571
10 *4362:B2 *4882:A 0.000318091
11 *4365:C1 *4365:B2 4.43871e-06
12 *611:23 *4365:B2 1.35051e-05
*RES
1 *4497:Q *4882:A 6.065 
2 *4497:Q *4365:B2 11.31 
*END

*D_NET *638 0.00174145
*CONN
*I *4807:A I *D sky130_fd_sc_hd__dlygate4sd3_1
*I *4135:C I *D sky130_fd_sc_hd__and4bb_2
*I *4498:Q O *D sky130_fd_sc_hd__dfrtp_2
*CAP
1 *4807:A 0.000185886
2 *4135:C 0.000186595
3 *4498:Q 8.76197e-05
4 *638:8 0.0004601
5 *4135:C *1009:14 8.40213e-05
6 *4135:C *1009:24 8.65961e-05
7 *4135:C *1010:10 2.75145e-05
8 *4135:C *1018:16 0.000111472
9 *4135:C *1024:10 0
10 *4135:C *1025:14 9.68854e-05
11 *4135:C *1048:16 0.000235573
12 *4807:A *4000:A0 0
13 *4807:A *1024:10 0
14 *4807:A *1025:8 6.93101e-05
15 *4807:A *1025:14 5.91331e-05
16 *5030:A *4807:A 0
17 *270:12 *638:8 5.07419e-05
*RES
1 *4498:Q *638:8 4.74 
2 *638:8 *4135:C 8.685 
3 *638:8 *4807:A 7.02 
*END

*D_NET *639 0.00199946
*CONN
*I *4001:A0 I *D sky130_fd_sc_hd__mux2_1
*I *4154:C I *D sky130_fd_sc_hd__and4bb_2
*I *4499:Q O *D sky130_fd_sc_hd__dfstp_2
*CAP
1 *4001:A0 0.000212018
2 *4154:C 0.00015647
3 *4499:Q 0.000285919
4 *639:10 0.000654407
5 *4001:A0 *4155:A2 0.000239813
6 *4001:A0 *4155:B1 5.58206e-05
7 *4154:C *4155:B1 0
8 *4154:C *4910:A 2.97004e-06
9 *4154:C *1021:79 0
10 *639:10 *4499:SET_B 0.000157179
11 *639:10 *4515:RESET_B 0.000138257
12 *4001:S *4154:C 0
13 *4026:S *4154:C 0
14 *270:131 *4154:C 0
15 *270:131 *639:10 9.66106e-05
*RES
1 *4499:Q *639:10 8.76 
2 *639:10 *4154:C 5.745 
3 *639:10 *4001:A0 7.965 
*END

*D_NET *640 0.0010295
*CONN
*I *4880:A I *D sky130_fd_sc_hd__dlygate4sd3_1
*I *4177:A1 I *D sky130_fd_sc_hd__a2111o_2
*I *4500:Q O *D sky130_fd_sc_hd__dfrtp_2
*CAP
1 *4880:A 1.67814e-05
2 *4177:A1 8.41372e-05
3 *4500:Q 9.21175e-05
4 *640:10 0.000193036
5 *640:10 *4177:A2 0
6 *4177:C1 *4177:A1 0.000141642
7 *4177:C1 *640:10 7.03219e-05
8 *273:94 *4177:A1 0.000383682
9 *273:94 *4880:A 4.77807e-05
*RES
1 *4500:Q *640:10 7.235 
2 *640:10 *4177:A1 5.155 
3 *640:10 *4880:A 2.05 
*END

*D_NET *641 0.0021738
*CONN
*I *4877:A I *D sky130_fd_sc_hd__dlygate4sd3_1
*I *4203:A1 I *D sky130_fd_sc_hd__a2111o_2
*I *4501:Q O *D sky130_fd_sc_hd__dfrtp_2
*CAP
1 *4877:A 0.000165657
2 *4203:A1 0.000199297
3 *4501:Q 0
4 *641:6 0.000364954
5 *4203:A1 *4059:A0 0.000386221
6 *4203:A1 *4331:B1 0
7 *4203:A1 *986:10 0
8 *4877:A *4501:RESET_B 0
9 *4877:A *986:10 0
10 *4203:B1 *4203:A1 4.99619e-05
11 *267:62 *4203:A1 0.000135903
12 *267:62 *4877:A 0.000219699
13 *276:23 *4203:A1 0.000578529
14 *622:57 *4877:A 7.35813e-05
*RES
1 *4501:Q *641:6 3.6 
2 *641:6 *4203:A1 10.515 
3 *641:6 *4877:A 7.395 
*END

*D_NET *642 0.00170706
*CONN
*I *4230:A I *D sky130_fd_sc_hd__and2_2
*I *4811:A I *D sky130_fd_sc_hd__dlygate4sd3_1
*I *4502:Q O *D sky130_fd_sc_hd__dfrtp_2
*CAP
1 *4230:A 0.000201998
2 *4811:A 0.00011302
3 *4502:Q 0.000163216
4 *642:10 0.000478233
5 *4811:A *958:35 0
6 *642:10 *4060:A0 8.65905e-05
7 *642:10 *958:35 0
8 *272:57 *4230:A 3.45679e-05
9 *272:57 *642:10 3.32976e-05
10 *276:23 *4230:A 0.000535991
11 *381:22 *4811:A 3.90336e-05
12 *381:22 *642:10 2.11162e-05
13 *612:68 *4811:A 0
*RES
1 *4502:Q *642:10 6.03 
2 *642:10 *4811:A 5.49 
3 *642:10 *4230:A 8.535 
*END

*D_NET *643 0.00188602
*CONN
*I *4885:A I *D sky130_fd_sc_hd__dlygate4sd3_1
*I *4285:A1 I *D sky130_fd_sc_hd__a2111o_2
*I *4503:Q O *D sky130_fd_sc_hd__dfrtp_2
*CAP
1 *4885:A 0.000224633
2 *4285:A1 0.000327064
3 *4503:Q 0
4 *643:6 0.000551697
5 *4285:A1 *4005:A0 0
6 *4285:A1 *4282:B1 0
7 *4285:A1 *1007:16 0.000134306
8 *4285:A1 *1007:20 5.83121e-06
9 *4285:A1 *1028:18 0
10 *4885:A *4005:A0 0
11 *4885:A *1028:18 0
12 *4005:S *4285:A1 0.000103127
13 *4285:A2 *4285:A1 4.82919e-05
14 *4285:B1 *4285:A1 0
15 *4286:B2 *4285:A1 0.000278111
16 *4716:A *4285:A1 0.000156623
17 *624:12 *4285:A1 5.63341e-05
*RES
1 *4503:Q *643:6 3.6 
2 *643:6 *4285:A1 11.58 
3 *643:6 *4885:A 7.05 
*END

*D_NET *644 0.00238896
*CONN
*I *4331:B2 I *D sky130_fd_sc_hd__a221o_2
*I *4927:A I *D sky130_fd_sc_hd__dlygate4sd3_1
*I *4504:Q O *D sky130_fd_sc_hd__dfrtp_2
*CAP
1 *4331:B2 0.000426986
2 *4927:A 2.87433e-05
3 *4504:Q 0.000174939
4 *644:8 0.000630669
5 *4331:B2 *4006:A0 0.000261407
6 *4331:B2 *4006:A1 0.000158552
7 *4331:B2 *1006:22 3.4399e-05
8 *4331:B2 *1015:40 4.28112e-06
9 *4927:A *985:99 0.000197858
10 *644:8 *1006:22 0.000150005
11 *4268:A2 *4331:B2 3.79621e-05
12 *4504:D *4331:B2 8.52972e-05
13 *4536:CLK *4927:A 0.000197858
*RES
1 *4504:Q *644:8 7.02 
2 *644:8 *4927:A 5.43 
3 *644:8 *4331:B2 11.8387 
*END

*D_NET *645 0.00164657
*CONN
*I *4912:A I *D sky130_fd_sc_hd__dlygate4sd3_1
*I *4366:B2 I *D sky130_fd_sc_hd__a221o_2
*I *4505:Q O *D sky130_fd_sc_hd__dfrtp_2
*CAP
1 *4912:A 4.36869e-05
2 *4366:B2 0.000128479
3 *4505:Q 0.000115238
4 *645:12 0.000287404
5 *4366:B2 *4007:A0 0.000135801
6 *4366:B2 *4369:A2 0
7 *4366:B2 *986:65 3.57846e-05
8 *4912:A *693:10 0.000161529
9 *645:12 *4545:RESET_B 1.43521e-05
10 *645:12 *693:10 0.000158066
11 *645:12 *1046:50 3.59997e-05
12 *4369:B1 *4366:B2 0
13 *4521:CLK *4366:B2 1.12643e-05
14 *280:77 *645:12 0.000116158
15 *618:65 *4912:A 0.000187276
16 *618:65 *645:12 0.000215535
*RES
1 *4505:Q *645:12 9.155 
2 *645:12 *4366:B2 8.10875 
3 *645:12 *4912:A 3.43 
*END

*D_NET *646 0.00258127
*CONN
*I *4140:A1 I *D sky130_fd_sc_hd__a2111o_2
*I *4009:A0 I *D sky130_fd_sc_hd__mux2_1
*I *4506:Q O *D sky130_fd_sc_hd__dfstp_2
*CAP
1 *4140:A1 0.00025489
2 *4009:A0 0.000423974
3 *4506:Q 4.48231e-05
4 *646:8 0.000723687
5 *4009:A0 *4009:A1 4.82863e-05
6 *4009:A0 *1024:20 9.74635e-05
7 *4140:A1 *4139:A_N 8.65961e-05
8 *4140:A1 *4139:B_N 4.66108e-05
9 *4140:A1 *4506:SET_B 0
10 *4140:A1 *4522:SET_B 1.26626e-05
11 *4140:A1 *1018:16 0.000252643
12 *4140:A1 *1024:12 2.92496e-05
13 *4140:A1 *1024:20 0.00015261
14 *646:8 *4522:SET_B 4.61256e-05
15 *646:8 *1018:16 9.17261e-05
16 *646:8 *1048:58 3.59531e-06
17 *4140:B1 *4140:A1 2.10034e-05
18 *4506:D *4009:A0 8.49205e-05
19 *4522:D *4140:A1 0
20 *625:39 *4009:A0 0.000160401
*RES
1 *4506:Q *646:8 4.725 
2 *646:8 *4009:A0 10.38 
3 *646:8 *4140:A1 8.85 
*END

*D_NET *647 0.0010123
*CONN
*I *4156:C I *D sky130_fd_sc_hd__and4bb_2
*I *4010:A0 I *D sky130_fd_sc_hd__mux2_1
*I *4507:Q O *D sky130_fd_sc_hd__dfstp_2
*CAP
1 *4156:C 0.000185707
2 *4010:A0 0.000188589
3 *4507:Q 0
4 *647:4 0.000374296
5 *4010:A0 *4507:SET_B 5.95509e-05
6 *4010:A0 *984:42 3.05807e-05
7 *4010:A0 *984:46 4.18603e-06
8 *4156:C *1013:101 4.92062e-05
9 *4704:A *4010:A0 0.000120186
*RES
1 *4507:Q *647:4 1.6 
2 *647:4 *4010:A0 9.155 
3 *647:4 *4156:C 4.465 
*END

*D_NET *648 0.00101383
*CONN
*I *4175:C I *D sky130_fd_sc_hd__and4bb_2
*I *4817:A I *D sky130_fd_sc_hd__dlygate4sd3_1
*I *4508:Q O *D sky130_fd_sc_hd__dfrtp_2
*CAP
1 *4175:C 0.000104086
2 *4817:A 0.000177001
3 *4508:Q 0.000138402
4 *648:8 0.000419489
5 *4175:C *4508:RESET_B 0
6 *4817:A *4011:A1 8.65905e-05
7 *4817:A *4508:RESET_B 0
8 *4529:CLK *4175:C 0
9 *268:101 *4817:A 8.8266e-05
10 *272:149 *4175:C 0
11 *619:12 *4175:C 0
12 *619:12 *4817:A 0
13 *619:16 *4817:A 0
*RES
1 *4508:Q *648:8 5.085 
2 *648:8 *4817:A 7.05 
3 *648:8 *4175:C 5.235 
*END

*D_NET *649 0.00197698
*CONN
*I *4878:A I *D sky130_fd_sc_hd__dlygate4sd3_1
*I *4202:A1 I *D sky130_fd_sc_hd__a22o_2
*I *4509:Q O *D sky130_fd_sc_hd__dfrtp_2
*CAP
1 *4878:A 0.000182348
2 *4202:A1 0.000455867
3 *4509:Q 0
4 *649:4 0.000638215
5 *4202:A1 *4032:A1 3.70009e-05
6 *4202:A1 *4202:B2 0.0001626
7 *4202:A1 *4509:RESET_B 0
8 *4202:A1 *4894:A 0.000104005
9 *4202:A1 *982:174 9.12494e-06
10 *4202:A1 *985:68 0.000195871
11 *4202:A1 *985:99 8.33066e-06
12 *4202:A1 *1006:12 0
13 *4878:A *4894:A 7.35729e-05
14 *4504:CLK *4202:A1 1.59615e-05
15 *4520:D *4202:A1 9.40874e-05
*RES
1 *4509:Q *649:4 1.6 
2 *649:4 *4202:A1 15.515 
3 *649:4 *4878:A 8.63 
*END

*D_NET *650 0.00110527
*CONN
*I *4808:A I *D sky130_fd_sc_hd__dlygate4sd3_1
*I *4234:C I *D sky130_fd_sc_hd__and4bb_2
*I *4510:Q O *D sky130_fd_sc_hd__dfrtp_2
*CAP
1 *4808:A 7.31186e-05
2 *4234:C 0.000184708
3 *4510:Q 0.000110128
4 *650:10 0.000367955
5 *4234:C *4013:A0 4.21973e-05
6 *4234:C *1010:30 0.000206452
7 *4808:A *1010:24 1.83847e-05
8 *4808:A *1010:30 1.19928e-05
9 *650:10 *4235:B 9.0336e-05
10 *650:10 *4688:RESET_B 0
*RES
1 *4510:Q *650:10 7.49 
2 *650:10 *4234:C 4.81 
3 *650:10 *4808:A 2.755 
*END

*D_NET *651 0.00198386
*CONN
*I *4818:A I *D sky130_fd_sc_hd__dlygate4sd3_1
*I *4280:C I *D sky130_fd_sc_hd__and4bb_2
*I *4511:Q O *D sky130_fd_sc_hd__dfrtp_2
*CAP
1 *4818:A 0.000189893
2 *4280:C 0.000366958
3 *4511:Q 3.69588e-05
4 *651:8 0.00059381
5 *4280:C *4280:B_N 3.48877e-05
6 *4280:C *982:111 7.32599e-05
7 *4818:A *1028:12 0
8 *651:8 *4511:RESET_B 4.66108e-05
9 *4281:C1 *4280:C 0
10 *4286:B2 *4280:C 6.77062e-05
11 *4494:D *4280:C 9.14049e-05
12 *4494:D *4818:A 0.000346461
13 *4518:CLK *4818:A 2.24975e-05
14 *4518:D *4818:A 0.000113416
15 *266:34 *4280:C 0
16 *266:34 *4818:A 0
17 *624:108 *4280:C 0
18 *624:108 *4818:A 0
*RES
1 *4511:Q *651:8 4.05 
2 *651:8 *4280:C 9.615 
3 *651:8 *4818:A 8.295 
*END

*D_NET *652 0.00153306
*CONN
*I *4332:C I *D sky130_fd_sc_hd__and4bb_2
*I *4835:A I *D sky130_fd_sc_hd__dlygate4sd3_1
*I *4512:Q O *D sky130_fd_sc_hd__dfrtp_2
*CAP
1 *4332:C 0.00020631
2 *4835:A 6.97101e-05
3 *4512:Q 0
4 *652:6 0.00027602
5 *4332:C *4035:A1 9.69048e-05
6 *4332:C *4784:A 0.000149837
7 *4332:C *985:66 0.000262696
8 *4332:C *1016:39 0.000129832
9 *4332:C *1043:6 8.23457e-05
10 *4332:C *1043:20 2.92496e-05
11 *4835:A *4035:A1 3.42142e-05
12 *4835:A *4784:A 3.86607e-05
13 *4512:D *4332:C 6.38291e-05
14 *4512:D *4835:A 8.53113e-06
15 *619:92 *4835:A 8.49205e-05
*RES
1 *4512:Q *652:6 3.6 
2 *652:6 *4835:A 5.265 
3 *652:6 *4332:C 9.54 
*END

*D_NET *653 0.00226628
*CONN
*I *4911:A I *D sky130_fd_sc_hd__dlygate4sd3_1
*I *4367:A1 I *D sky130_fd_sc_hd__a22o_2
*I *4513:Q O *D sky130_fd_sc_hd__dfrtp_2
*CAP
1 *4911:A 0.000146107
2 *4367:A1 5.07687e-05
3 *4513:Q 0.000382528
4 *653:10 0.000579404
5 *4367:A1 *4016:A0 0.000160338
6 *4367:A1 *4367:A2 1.2818e-05
7 *4911:A *4016:A0 0.000109489
8 *4911:A *5054:A 9.27427e-05
9 *4911:A *847:22 0.000106572
10 *4911:A *1049:23 0.000267546
11 *4911:A *1049:27 9.12494e-06
12 *653:10 *3988:A1 7.60965e-05
13 *653:10 *4066:A0 0
14 *653:10 *4367:A2 6.94138e-05
15 *653:10 *4686:RESET_B 0
16 *653:10 *5054:A 1.64067e-05
17 *653:10 *985:34 5.21627e-05
18 *653:10 *1046:31 0
19 *4368:B1 *4367:A1 1.79098e-05
20 *4556:D *653:10 0.000116853
*RES
1 *4513:Q *653:10 10.71 
2 *653:10 *4367:A1 5.085 
3 *653:10 *4911:A 7.755 
*END

*D_NET *654 0.00221344
*CONN
*I *4866:A I *D sky130_fd_sc_hd__dlygate4sd3_1
*I *4136:A2 I *D sky130_fd_sc_hd__o211a_2
*I *4514:Q O *D sky130_fd_sc_hd__dfrtp_2
*CAP
1 *4866:A 0.000193236
2 *4136:A2 0.000327849
3 *4514:Q 0.000357275
4 *654:8 0.00087836
5 *4136:A2 *4136:A1 2.51977e-05
6 *4136:A2 *902:32 0
7 *4136:A2 *1009:34 0.000213785
8 *4136:A2 *1010:24 8.72697e-05
9 *4136:A2 *1016:111 4.82919e-05
10 *4136:A2 *1016:115 3.25635e-05
11 *4866:A *4019:A0 0
12 *4866:A *4486:A0 4.82863e-05
13 *4866:A *902:30 0
14 *654:8 *4514:RESET_B 1.32907e-06
15 *4514:D *4136:A2 0
16 *4514:D *4866:A 0
*RES
1 *4514:Q *654:8 7.5 
2 *654:8 *4136:A2 9.99 
3 *654:8 *4866:A 6.705 
*END

*D_NET *655 0.00189844
*CONN
*I *4869:A I *D sky130_fd_sc_hd__dlygate4sd3_1
*I *4155:A2 I *D sky130_fd_sc_hd__o211a_2
*I *4515:Q O *D sky130_fd_sc_hd__dfrtp_2
*CAP
1 *4869:A 0.000187589
2 *4155:A2 0.000263885
3 *4515:Q 0
4 *655:4 0.000451474
5 *4155:A2 *4155:B1 4.088e-05
6 *4155:A2 *4155:C1 0.000159741
7 *4869:A *4499:SET_B 0
8 *4869:A *4515:RESET_B 0
9 *4869:A *701:99 0.000122331
10 *4001:A0 *4155:A2 0.000239813
11 *4499:D *4155:A2 0.000159741
12 *4499:D *4869:A 0
13 *625:10 *4869:A 0.000161529
14 *625:89 *4869:A 0.000111455
*RES
1 *4515:Q *655:4 1.6 
2 *655:4 *4155:A2 7.255 
3 *655:4 *4869:A 9.5 
*END

*D_NET *656 0.00153187
*CONN
*I *4021:A0 I *D sky130_fd_sc_hd__mux2_1
*I *4174:A2 I *D sky130_fd_sc_hd__o211a_2
*I *4516:Q O *D sky130_fd_sc_hd__dfstp_2
*CAP
1 *4021:A0 9.83826e-05
2 *4174:A2 8.75501e-05
3 *4516:Q 0.000209072
4 *656:10 0.000395005
5 *4174:A2 *4174:A1 0.000141599
6 *4174:A2 *995:37 0
7 *4174:A2 *995:46 0
8 *656:10 *4174:A1 7.30547e-05
9 *656:10 *4175:A_N 0.000198939
10 *656:10 *995:46 0
11 *656:10 *1009:60 8.5242e-05
12 *4021:S *656:10 4.40812e-05
13 *619:90 *4021:A0 0.000198939
*RES
1 *4516:Q *656:10 7.32 
2 *656:10 *4174:A2 5.235 
3 *656:10 *4021:A0 5.43 
*END

*D_NET *657 0.0021102
*CONN
*I *4870:A I *D sky130_fd_sc_hd__dlygate4sd3_1
*I *4199:A2 I *D sky130_fd_sc_hd__o211a_2
*I *4517:Q O *D sky130_fd_sc_hd__dfrtp_2
*CAP
1 *4870:A 0.000411863
2 *4199:A2 0.000178933
3 *4517:Q 0.000590795
4 *4199:A2 *4199:A1 0.000111054
5 *4199:A2 *4199:B1 0.000133447
6 *4199:A2 *4199:C1 1.32017e-05
7 *4199:A2 *4200:D 0.000120186
8 *4199:A2 *4517:RESET_B 1.1392e-05
9 *4199:A2 *1014:102 0.000139933
10 *4199:A2 *1043:59 1.97849e-05
11 *4870:A *4779:A 4.43871e-06
12 *4870:A *1006:59 4.43871e-06
13 *4870:A *1006:74 8.03677e-05
14 *4005:S *4870:A 1.73877e-05
15 *622:57 *4870:A 0.000272978
*RES
1 *4517:Q *4199:A2 11.415 
2 *4517:Q *4870:A 13.275 
*END

*D_NET *658 0.000808236
*CONN
*I *4871:A I *D sky130_fd_sc_hd__dlygate4sd3_1
*I *4233:A2 I *D sky130_fd_sc_hd__o211a_2
*I *4518:Q O *D sky130_fd_sc_hd__dfrtp_2
*CAP
1 *4871:A 0.000126819
2 *4233:A2 1.44056e-05
3 *4518:Q 0.000155854
4 *658:8 0.000297078
5 *4233:A2 *4233:A1 6.12918e-06
6 *4233:A2 *4233:B1 5.4155e-06
7 *4871:A *4233:A1 1.12578e-05
8 *4871:A *4233:B1 4.99619e-05
9 *4871:A *1017:12 0
10 *658:8 *4233:A1 2.49418e-05
11 *4014:S *658:8 2.96524e-05
12 *4236:A *658:8 3.45588e-05
13 *4848:A *4871:A 5.21615e-05
*RES
1 *4518:Q *658:8 4.135 
2 *658:8 *4233:A2 1.96 
3 *658:8 *4871:A 8.03 
*END

*D_NET *659 0.00296941
*CONN
*I *4924:A I *D sky130_fd_sc_hd__dlygate4sd3_1
*I *4282:A2 I *D sky130_fd_sc_hd__o211a_2
*I *4519:Q O *D sky130_fd_sc_hd__dfrtp_2
*CAP
1 *4924:A 0.000136647
2 *4282:A2 0.000782715
3 *4519:Q 0.000224241
4 *659:8 0.0011436
5 *4282:A2 *4052:A1 0
6 *4282:A2 *4282:A1 7.24402e-05
7 *4282:A2 *4282:C1 4.00541e-06
8 *4282:A2 *4519:RESET_B 0
9 *4282:A2 *1014:12 9.46111e-06
10 *4282:A2 *1022:26 0.000138964
11 *4282:A2 *1022:34 0.000199478
12 *4924:A *4052:A1 0
13 *4543:CLK *4282:A2 7.89689e-05
14 *4543:D *4282:A2 7.06865e-05
15 *624:18 *4282:A2 6.01715e-05
16 *624:18 *659:8 4.80285e-05
*RES
1 *4519:Q *659:8 7.155 
2 *659:8 *4282:A2 15.885 
3 *659:8 *4924:A 5.745 
*END

*D_NET *660 0.00102571
*CONN
*I *4333:A2 I *D sky130_fd_sc_hd__o211a_2
*I *4867:A I *D sky130_fd_sc_hd__dlygate4sd3_1
*I *4520:Q O *D sky130_fd_sc_hd__dfrtp_2
*CAP
1 *4333:A2 4.13345e-05
2 *4867:A 2.70802e-05
3 *4520:Q 0.00019382
4 *660:10 0.000262235
5 *4333:A2 *4333:A1 4.73729e-05
6 *4333:A2 *4333:B1 3.09774e-05
7 *660:10 *4025:A0 0
8 *660:10 *4025:A1 0
9 *660:10 *4333:A1 0.000174421
10 *660:10 *1009:98 0
11 *4044:S *4333:A2 4.15074e-05
12 *4044:S *4867:A 4.90227e-05
13 *4335:C1 *4333:A2 0.00011016
14 *4335:C1 *4867:A 4.77769e-05
*RES
1 *4520:Q *660:10 9.02 
2 *660:10 *4867:A 2.395 
3 *660:10 *4333:A2 3.1 
*END

*D_NET *661 0.000722531
*CONN
*I *4832:A I *D sky130_fd_sc_hd__dlygate4sd3_1
*I *4365:A1 I *D sky130_fd_sc_hd__a221o_2
*I *4521:Q O *D sky130_fd_sc_hd__dfrtp_2
*CAP
1 *4832:A 8.93422e-05
2 *4365:A1 0
3 *4521:Q 7.72432e-05
4 *661:10 0.000166585
5 *661:10 *891:26 1.83847e-05
6 *4362:B2 *661:10 0.000116853
7 *4365:B2 *4832:A 5.53249e-06
8 *4365:B2 *661:10 6.55328e-05
9 *4365:C1 *4832:A 0
10 *255:24 *4832:A 0.000174526
11 *255:24 *661:10 8.53113e-06
*RES
1 *4521:Q *661:10 5.43 
2 *661:10 *4365:A1 3.6 
3 *661:10 *4832:A 5.745 
*END

*D_NET *662 0.00119298
*CONN
*I *4139:D I *D sky130_fd_sc_hd__and4bb_2
*I *4029:A1 I *D sky130_fd_sc_hd__mux2_1
*I *4522:Q O *D sky130_fd_sc_hd__dfstp_2
*CAP
1 *4139:D 7.79571e-05
2 *4029:A1 0.000127812
3 *4522:Q 0.000135303
4 *662:8 0.000341072
5 *4029:A1 *4766:A 0
6 *4139:D *4766:A 0
7 *4139:D *1010:24 4.18203e-05
8 *4139:D *1018:16 3.07481e-05
9 *4141:B2 *4029:A1 0.000103398
10 *4141:B2 *4139:D 3.03578e-05
11 *268:32 *4029:A1 8.8266e-05
12 *272:16 *4029:A1 6.4422e-05
13 *272:16 *662:8 8.65961e-05
14 *625:39 *662:8 6.52265e-05
*RES
1 *4522:Q *662:8 5.43 
2 *662:8 *4029:A1 6.54 
3 *662:8 *4139:D 5.235 
*END

*D_NET *663 0.000571274
*CONN
*I *4157:A1 I *D sky130_fd_sc_hd__a2111o_2
*I *4910:A I *D sky130_fd_sc_hd__dlygate4sd3_1
*I *4523:Q O *D sky130_fd_sc_hd__dfrtp_2
*CAP
1 *4157:A1 8.73406e-05
2 *4910:A 9.6732e-05
3 *4523:Q 0
4 *663:4 0.000184073
5 *4157:A1 *982:77 4.66108e-05
6 *4910:A *4154:A_N 4.82863e-05
7 *4910:A *4154:B_N 4.82863e-05
8 *4910:A *1021:79 0
9 *4910:A *1029:113 2.46089e-05
10 *4154:C *4910:A 2.97004e-06
11 *4157:C1 *4157:A1 3.23663e-05
*RES
1 *4523:Q *663:4 1.6 
2 *663:4 *4910:A 7.43 
3 *663:4 *4157:A1 2.74 
*END

*D_NET *664 0.00321666
*CONN
*I *4031:A1 I *D sky130_fd_sc_hd__mux2_1
*I *4173:B2 I *D sky130_fd_sc_hd__a22o_2
*I *4524:Q O *D sky130_fd_sc_hd__dfstp_2
*CAP
1 *4031:A1 0.000435169
2 *4173:B2 0.000177812
3 *4524:Q 6.84675e-05
4 *664:8 0.000681449
5 *4031:A1 *3993:A1 7.27298e-06
6 *4031:A1 *4031:A0 0.000272615
7 *4173:B2 *4173:A1 0.000458385
8 *4173:B2 *4173:B1 0.000122202
9 *4173:B2 *1009:45 9.39388e-06
10 *664:8 *4049:A1 0.000152127
11 *664:8 *4173:A1 9.54399e-05
12 *4524:D *4031:A1 8.8266e-05
13 *270:18 *4173:B2 0.000397237
14 *270:18 *664:8 0.000237362
15 *274:50 *4031:A1 1.34594e-05
*RES
1 *4524:Q *664:8 6.51 
2 *664:8 *4173:B2 9.435 
3 *664:8 *4031:A1 10.38 
*END

*D_NET *665 0.00174575
*CONN
*I *4202:B2 I *D sky130_fd_sc_hd__a22o_2
*I *4894:A I *D sky130_fd_sc_hd__dlygate4sd3_1
*I *4525:Q O *D sky130_fd_sc_hd__dfrtp_2
*CAP
1 *4202:B2 0.000289441
2 *4894:A 0.000273105
3 *4525:Q 7.57003e-05
4 *665:8 0.000638246
5 *4202:B2 *4025:A0 7.39738e-05
6 *4202:B2 *982:174 4.55864e-06
7 *4894:A *4032:A1 5.05521e-05
8 *4202:A1 *4202:B2 0.0001626
9 *4202:A1 *4894:A 0.000104005
10 *4878:A *4894:A 7.35729e-05
*RES
1 *4525:Q *665:8 4.395 
2 *665:8 *4894:A 9.12 
3 *665:8 *4202:B2 9.315 
*END

*D_NET *666 0.00240154
*CONN
*I *4952:A I *D sky130_fd_sc_hd__dlygate4sd3_1
*I *4231:B2 I *D sky130_fd_sc_hd__a22o_2
*I *4526:Q O *D sky130_fd_sc_hd__dfrtp_2
*CAP
1 *4952:A 0.00021134
2 *4231:B2 0.000374435
3 *4526:Q 0
4 *666:6 0.000585775
5 *4231:B2 *4033:A1 0.000148377
6 *4231:B2 *958:109 0
7 *4231:B2 *987:90 0.000234777
8 *4231:B2 *1017:32 0
9 *4952:A *4033:A1 0.000199054
10 *4952:A *958:109 0
11 *4952:A *1017:32 0
12 *4502:CLK *4231:B2 6.74079e-05
13 *4502:CLK *4952:A 4.58406e-05
14 *4502:D *4231:B2 0
15 *4534:D *4952:A 4.4073e-05
16 *267:54 *4231:B2 0.000232262
17 *272:68 *4231:B2 0
18 *273:38 *4952:A 0.000163204
19 *622:27 *4952:A 7.26551e-05
20 *622:29 *4952:A 2.23407e-05
*RES
1 *4526:Q *666:6 3.6 
2 *666:6 *4231:B2 12.87 
3 *666:6 *4952:A 9.78 
*END

*D_NET *667 0.00142732
*CONN
*I *4281:B2 I *D sky130_fd_sc_hd__a221o_2
*I *4937:A I *D sky130_fd_sc_hd__dlygate4sd3_1
*I *4527:Q O *D sky130_fd_sc_hd__dfrtp_2
*CAP
1 *4281:B2 1.37143e-05
2 *4937:A 1.20941e-05
3 *4527:Q 0.000426915
4 *667:14 0.000452723
5 *4281:B2 *3996:A1 5.4155e-06
6 *4281:B2 *4214:A2 2.5807e-05
7 *4937:A *3996:A1 8.8266e-05
8 *4937:A *4214:A2 4.60584e-05
9 *667:14 *3996:A1 3.66286e-05
10 *667:14 *4214:A2 1.06754e-05
11 *667:14 *4281:A2 0
12 *667:14 *4281:B1 9.57985e-06
13 *667:14 *4495:RESET_B 0.00010596
14 *667:14 *1040:68 5.4003e-05
15 *4495:CLK *667:14 0
16 *4551:CLK *667:14 0
17 *612:83 *667:14 0.000139478
*RES
1 *4527:Q *667:14 13.445 
2 *667:14 *4937:A 2.395 
3 *667:14 *4281:B2 2.06875 
*END

*D_NET *668 0.00255473
*CONN
*I *4899:A I *D sky130_fd_sc_hd__dlygate4sd3_1
*I *4334:D I *D sky130_fd_sc_hd__and4bb_2
*I *4528:Q O *D sky130_fd_sc_hd__dfrtp_2
*CAP
1 *4899:A 0.000195577
2 *4334:D 0.000162815
3 *4528:Q 9.59965e-05
4 *668:10 0.000454389
5 *4334:D *4334:B_N 6.12198e-05
6 *4334:D *985:66 0.000243634
7 *4334:D *1024:87 2.37248e-05
8 *4334:D *1043:20 0.000442997
9 *4899:A *4035:A1 0.000137723
10 *4899:A *5052:A 0.000103439
11 *4899:A *1024:76 0.00023351
12 *668:10 *4035:A1 0.000151219
13 *668:10 *4528:RESET_B 4.82919e-05
14 *668:10 *5052:A 0.000153587
15 *4335:B1 *4334:D 4.66108e-05
*RES
1 *4528:Q *668:10 5.94 
2 *668:10 *4334:D 8.91 
3 *668:10 *4899:A 8.205 
*END

*D_NET *669 0.00158128
*CONN
*I *4367:B2 I *D sky130_fd_sc_hd__a22o_2
*I *4913:A I *D sky130_fd_sc_hd__dlygate4sd3_1
*I *4529:Q O *D sky130_fd_sc_hd__dfrtp_2
*CAP
1 *4367:B2 0
2 *4913:A 0.000224676
3 *4529:Q 0.000100395
4 *669:12 0.000325071
5 *4913:A *4016:A0 8.06242e-05
6 *669:12 *4513:RESET_B 0.000136679
7 *669:12 *985:66 4.92062e-05
8 *669:12 *1046:43 0.000135382
9 *4513:D *4913:A 7.11365e-05
10 *273:94 *4913:A 0.000458107
*RES
1 *4529:Q *669:12 8.03 
2 *669:12 *4913:A 7.225 
3 *669:12 *4367:B2 1.6 
*END

*D_NET *670 0.00151908
*CONN
*I *4939:A I *D sky130_fd_sc_hd__dlygate4sd3_1
*I *4133:B2 I *D sky130_fd_sc_hd__a221o_2
*I *4530:Q O *D sky130_fd_sc_hd__dfrtp_2
*CAP
1 *4939:A 0.000324806
2 *4133:B2 6.47078e-05
3 *4530:Q 0.000389513
4 *4133:B2 *1048:107 5.50989e-05
5 *4939:A *4530:RESET_B 0.000274659
6 *4939:A *1048:58 0.000289011
7 *3991:A0 *4133:B2 7.4538e-05
8 *3991:A0 *4939:A 0
9 *4133:C1 *4133:B2 5.53249e-06
10 *4546:D *4939:A 3.67779e-05
11 *630:10 *4133:B2 4.43871e-06
*RES
1 *4530:Q *4133:B2 9.075 
2 *4530:Q *4939:A 13.14 
*END

*D_NET *671 0.00212292
*CONN
*I *4153:B2 I *D sky130_fd_sc_hd__a22o_2
*I *4039:A1 I *D sky130_fd_sc_hd__mux2_1
*I *4531:Q O *D sky130_fd_sc_hd__dfstp_2
*CAP
1 *4153:B2 0.000271041
2 *4039:A1 0.000150733
3 *4531:Q 0.000421774
4 *4039:A1 *4048:A1 0.000139245
5 *4039:A1 *4531:SET_B 2.65814e-06
6 *4039:A1 *987:59 0.000270415
7 *4153:B2 *4153:A1 6.11008e-05
8 *4153:B2 *4547:RESET_B 0
9 *4153:B2 *4788:A 0
10 *4153:B2 *4916:A 4.66108e-05
11 *4057:S *4039:A1 0.000154098
12 *4704:A *4039:A1 0.000137578
13 *4704:A *4153:B2 0.000464508
14 *289:18 *4039:A1 3.1562e-06
*RES
1 *4531:Q *4039:A1 11.805 
2 *4531:Q *4153:B2 13.47 
*END

*D_NET *672 0.00111215
*CONN
*I *4176:D I *D sky130_fd_sc_hd__and4b_2
*I *4040:A1 I *D sky130_fd_sc_hd__mux2_1
*I *4532:Q O *D sky130_fd_sc_hd__dfstp_2
*CAP
1 *4176:D 0
2 *4040:A1 9.8174e-05
3 *4532:Q 9.35799e-05
4 *672:12 0.000191754
5 *4040:A1 *4176:A_N 4.77807e-05
6 *4040:A1 *4176:B 8.06138e-05
7 *4040:A1 *1024:76 2.0187e-05
8 *672:12 *985:66 4.99619e-05
9 *672:12 *1009:58 7.04916e-05
10 *4040:S *4040:A1 4.89395e-05
11 *270:18 *672:12 6.9855e-05
12 *273:94 *4040:A1 0.000340812
*RES
1 *4532:Q *672:12 7.685 
2 *672:12 *4040:A1 4.81 
3 *672:12 *4176:D 1.6 
*END

*D_NET *673 0.00154754
*CONN
*I *4872:A I *D sky130_fd_sc_hd__dlygate4sd3_1
*I *4200:D I *D sky130_fd_sc_hd__and4b_2
*I *4533:Q O *D sky130_fd_sc_hd__dfrtp_2
*CAP
1 *4872:A 6.07396e-05
2 *4200:D 0.000139382
3 *4533:Q 0
4 *673:6 0.000200121
5 *4200:D *4199:C1 5.53249e-06
6 *4200:D *4533:RESET_B 7.23602e-05
7 *4200:D *1014:102 0.00033755
8 *4200:D *1022:114 0.000220614
9 *4872:A *4533:RESET_B 8.82978e-05
10 *4872:A *1014:102 0.000230869
11 *4872:A *1022:114 7.18817e-05
12 *4199:A2 *4200:D 0.000120186
*RES
1 *4533:Q *673:6 3.6 
2 *673:6 *4200:D 9.06 
3 *673:6 *4872:A 6.255 
*END

*D_NET *674 0.0025763
*CONN
*I *4936:A I *D sky130_fd_sc_hd__dlygate4sd3_1
*I *4231:A1 I *D sky130_fd_sc_hd__a22o_2
*I *4534:Q O *D sky130_fd_sc_hd__dfrtp_2
*CAP
1 *4936:A 0.000191102
2 *4231:A1 0.000394699
3 *4534:Q 0
4 *674:4 0.000585801
5 *4231:A1 *4502:RESET_B 0
6 *4231:A1 *4534:RESET_B 0
7 *4231:A1 *982:151 0.000411008
8 *4936:A *4502:RESET_B 5.21545e-05
9 *4936:A *4542:RESET_B 0
10 *4936:A *1042:61 8.5225e-05
11 *4004:S *4231:A1 2.25106e-05
12 *4237:A2 *4231:A1 0.000183334
13 *4237:A3 *4936:A 0.000170551
14 *272:57 *4231:A1 4.23212e-05
15 *280:87 *4231:A1 0.000119375
16 *280:95 *4231:A1 9.50342e-06
17 *622:16 *4231:A1 0.000197264
18 *622:16 *4936:A 0.000111455
*RES
1 *4534:Q *674:4 1.6 
2 *674:4 *4231:A1 16.205 
3 *674:4 *4936:A 10.415 
*END

*D_NET *675 0.00151172
*CONN
*I *4283:D I *D sky130_fd_sc_hd__and4b_2
*I *4852:A I *D sky130_fd_sc_hd__dlygate4sd3_1
*I *4535:Q O *D sky130_fd_sc_hd__dfrtp_2
*CAP
1 *4283:D 0.000144188
2 *4852:A 5.7811e-05
3 *4535:Q 0.00024795
4 *675:8 0.000449949
5 *4283:D *1007:22 8.40213e-05
6 *4283:D *1010:84 0
7 *4283:D *1035:39 8.99646e-05
8 *4283:D *1035:46 0.000116151
9 *4852:A *1010:84 0
10 *4852:A *1035:39 0.000120186
11 *675:8 *4214:A2 0.000201502
*RES
1 *4535:Q *675:8 6.81 
2 *675:8 *4852:A 4.98 
3 *675:8 *4283:D 6.795 
*END

*D_NET *676 0.000994734
*CONN
*I *4331:A1 I *D sky130_fd_sc_hd__a221o_2
*I *4904:A I *D sky130_fd_sc_hd__dlygate4sd3_1
*I *4536:Q O *D sky130_fd_sc_hd__dfrtp_2
*CAP
1 *4331:A1 0.000184036
2 *4904:A 0.00012388
3 *4536:Q 0.000307916
4 *4331:A1 *4536:RESET_B 8.34281e-06
5 *4331:A1 *985:99 2.69153e-05
6 *4904:A *4536:RESET_B 8.41384e-05
7 *4904:A *1037:12 0.000235382
8 *4504:D *4331:A1 2.41231e-05
*RES
1 *4536:Q *4904:A 6.065 
2 *4536:Q *4331:A1 9.63 
*END

*D_NET *677 0.000897203
*CONN
*I *4368:A1 I *D sky130_fd_sc_hd__a21o_2
*I *4908:A I *D sky130_fd_sc_hd__dlygate4sd3_1
*I *4537:Q O *D sky130_fd_sc_hd__dfrtp_2
*CAP
1 *4368:A1 8.19396e-05
2 *4908:A 0
3 *4537:Q 9.19307e-05
4 *677:6 0.00017387
5 *4368:A1 *986:65 0.000151814
6 *677:6 *4045:A1 4.90227e-05
7 *677:6 *986:65 0.000112414
8 *4369:B2 *4368:A1 2.88357e-05
9 *280:77 *4368:A1 8.9336e-05
10 *280:77 *677:6 0.000118039
*RES
1 *4537:Q *677:6 4.465 
2 *677:6 *4908:A 1.6 
3 *677:6 *4368:A1 4.48 
*END

*D_NET *678 0.00155099
*CONN
*I *4047:A1 I *D sky130_fd_sc_hd__mux2_1
*I *4129:C I *D sky130_fd_sc_hd__and4b_2
*I *4538:Q O *D sky130_fd_sc_hd__dfstp_2
*CAP
1 *4047:A1 7.88395e-05
2 *4129:C 0.000144515
3 *4538:Q 7.56177e-05
4 *678:8 0.000298972
5 *4047:A1 *1016:10 9.70786e-05
6 *4129:C *1009:45 4.99619e-05
7 *4129:C *1016:10 0.000164444
8 *678:8 *4538:SET_B 2.01259e-05
9 *4490:D *4047:A1 0.000249921
10 *4490:D *4129:C 0.000228222
11 *274:85 *4129:C 9.50114e-05
12 *275:30 *4129:C 4.82863e-05
*RES
1 *4538:Q *678:8 4.395 
2 *678:8 *4129:C 8.745 
3 *678:8 *4047:A1 6.51 
*END

*D_NET *679 0.0021002
*CONN
*I *4153:A1 I *D sky130_fd_sc_hd__a22o_2
*I *4048:A1 I *D sky130_fd_sc_hd__mux2_1
*I *4539:Q O *D sky130_fd_sc_hd__dfstp_2
*CAP
1 *4153:A1 9.58438e-05
2 *4048:A1 0.00040636
3 *4539:Q 0.000502204
4 *4048:A1 *3991:S 1.91597e-05
5 *4048:A1 *4048:A0 0.000193017
6 *4048:A1 *4531:SET_B 0.000111054
7 *4048:A1 *4539:SET_B 3.45588e-05
8 *4153:A1 *4539:SET_B 8.49205e-05
9 *4153:A1 *1049:27 6.11008e-05
10 *4039:A1 *4048:A1 0.000139245
11 *4153:B2 *4153:A1 6.11008e-05
12 *4704:A *4048:A1 0.000188209
13 *268:87 *4048:A1 0.000203423
*RES
1 *4539:Q *4048:A1 16.47 
2 *4539:Q *4153:A1 9.375 
*END

*D_NET *680 0.00264429
*CONN
*I *4049:A1 I *D sky130_fd_sc_hd__mux2_1
*I *4173:A1 I *D sky130_fd_sc_hd__a22o_2
*I *4540:Q O *D sky130_fd_sc_hd__dfstp_2
*CAP
1 *4049:A1 0.000200578
2 *4173:A1 0.000243474
3 *4540:Q 0
4 *680:6 0.000444052
5 *4049:A1 *987:84 0.000120655
6 *4049:A1 *1009:45 0.000331814
7 *4173:A1 *4173:B1 4.12775e-05
8 *4173:A1 *1009:45 0.000464053
9 *4173:B2 *4173:A1 0.000458385
10 *270:18 *4049:A1 9.24388e-05
11 *664:8 *4049:A1 0.000152127
12 *664:8 *4173:A1 9.54399e-05
*RES
1 *4540:Q *680:6 3.6 
2 *680:6 *4173:A1 10.89 
3 *680:6 *4049:A1 8.67 
*END

*D_NET *681 0.00244809
*CONN
*I *4201:C I *D sky130_fd_sc_hd__and4b_2
*I *4845:A I *D sky130_fd_sc_hd__dlygate4sd3_1
*I *4541:Q O *D sky130_fd_sc_hd__dfrtp_2
*CAP
1 *4201:C 0.000188996
2 *4845:A 0.000280654
3 *4541:Q 0
4 *681:6 0.00046965
5 *4201:C *4330:A_N 0.000162311
6 *4201:C *4771:A 0.00029521
7 *4201:C *987:118 0.000541118
8 *4201:C *994:50 0
9 *4201:C *1023:8 1.12578e-05
10 *4845:A *4316:A1 3.09164e-05
11 *4845:A *4541:RESET_B 0.00010301
12 *4845:A *4961:A 4.82919e-05
13 *4845:A *991:62 0.000190065
14 *4845:A *994:50 0
15 *4845:A *1032:64 8.08153e-06
16 *4845:A *1118:8 0.000118527
*RES
1 *4541:Q *681:6 3.6 
2 *681:6 *4845:A 10.38 
3 *681:6 *4201:C 10.17 
*END

*D_NET *682 0.000966876
*CONN
*I *4235:C I *D sky130_fd_sc_hd__and4b_2
*I *4853:A I *D sky130_fd_sc_hd__dlygate4sd3_1
*I *4542:Q O *D sky130_fd_sc_hd__dfrtp_2
*CAP
1 *4235:C 3.36255e-05
2 *4853:A 0.000137671
3 *4542:Q 0.000168639
4 *682:6 0.000339936
5 *4853:A *4235:A_N 0
6 *4853:A *4235:B 4.43871e-06
7 *4853:A *4510:RESET_B 8.47308e-05
8 *682:6 *4688:RESET_B 4.82863e-05
9 *4236:C *682:6 4.66108e-05
10 *4506:CLK *4235:C 2.16917e-05
11 *4506:CLK *682:6 8.12469e-05
*RES
1 *4542:Q *682:6 3.775 
2 *682:6 *4853:A 8.255 
3 *682:6 *4235:C 2.05 
*END

*D_NET *683 0.00258563
*CONN
*I *4886:A I *D sky130_fd_sc_hd__dlygate4sd3_1
*I *4284:C I *D sky130_fd_sc_hd__and4b_2
*I *4543:Q O *D sky130_fd_sc_hd__dfrtp_2
*CAP
1 *4886:A 0.000340825
2 *4284:C 0.000256095
3 *4543:Q 0
4 *683:6 0.00059692
5 *4284:C *4282:A1 2.66939e-05
6 *4284:C *4284:A_N 0.000158965
7 *4284:C *4284:D 7.22354e-05
8 *4284:C *1014:102 0.000460168
9 *4284:C *1022:114 0.000276326
10 *4886:A *4005:A0 0.000116656
11 *4022:S *4284:C 2.11552e-05
12 *4022:S *4886:A 7.30835e-05
13 *4024:S *4886:A 0.000186509
*RES
1 *4543:Q *683:6 3.6 
2 *683:6 *4284:C 11.82 
3 *683:6 *4886:A 11.1 
*END

*D_NET *684 0.000709028
*CONN
*I *4330:C I *D sky130_fd_sc_hd__and4b_2
*I *4844:A I *D sky130_fd_sc_hd__dlygate4sd3_1
*I *4544:Q O *D sky130_fd_sc_hd__dfrtp_2
*CAP
1 *4330:C 2.25658e-05
2 *4844:A 5.91434e-05
3 *4544:Q 5.43464e-05
4 *684:6 0.000136056
5 *4330:C *4330:D 2.49909e-05
6 *4844:A *4053:A0 0.00015997
7 *4844:A *4330:A_N 6.14776e-05
8 *684:6 *4330:B 7.85767e-05
9 *684:6 *4330:D 0.000111901
*RES
1 *4544:Q *684:6 3.43 
2 *684:6 *4844:A 7.49 
3 *684:6 *4330:C 2.05 
*END

*D_NET *685 0.0015628
*CONN
*I *4916:A I *D sky130_fd_sc_hd__dlygate4sd3_1
*I *4366:A1 I *D sky130_fd_sc_hd__a221o_2
*I *4545:Q O *D sky130_fd_sc_hd__dfrtp_2
*CAP
1 *4916:A 0.000271418
2 *4366:A1 9.49315e-05
3 *4545:Q 8.94581e-05
4 *685:10 0.000455807
5 *685:10 *4545:RESET_B 3.2071e-05
6 *4153:B1 *4916:A 5.8678e-05
7 *4153:B2 *4916:A 4.66108e-05
8 *4366:A2 *4366:A1 1.2818e-05
9 *4521:CLK *4366:A1 8.19654e-05
10 *4521:CLK *685:10 8.49205e-05
11 *4704:A *4916:A 0.000154144
12 *268:87 *4916:A 0
13 *280:77 *4916:A 0.000122354
14 *280:77 *685:10 3.2071e-05
15 *381:22 *4916:A 1.46744e-05
16 *381:24 *4916:A 1.08758e-05
*RES
1 *4545:Q *685:10 5.265 
2 *685:10 *4366:A1 5.085 
3 *685:10 *4916:A 8.76 
*END

*D_NET *686 0.00133493
*CONN
*I *4985:A I *D sky130_fd_sc_hd__dlygate4sd3_1
*I *4141:A1 I *D sky130_fd_sc_hd__o22ai_2
*I *4546:Q O *D sky130_fd_sc_hd__dfrtp_2
*CAP
1 *4985:A 9.57984e-05
2 *4141:A1 0.000229589
3 *4546:Q 0
4 *686:6 0.000325387
5 *4141:A1 *4141:A2 0
6 *4141:A1 *987:59 0
7 *4141:A1 *987:61 0
8 *4985:A *3991:S 0.000122331
9 *4056:S *4985:A 0
10 *274:22 *4141:A1 0.000249935
11 *274:22 *4985:A 0.000166711
12 *289:18 *4141:A1 0.000145184
*RES
1 *4546:Q *686:6 3.6 
2 *686:6 *4141:A1 8.685 
3 *686:6 *4985:A 6.12 
*END

*D_NET *687 0.00101441
*CONN
*I *5017:A I *D sky130_fd_sc_hd__dlygate4sd3_1
*I *4158:B2 I *D sky130_fd_sc_hd__o32ai_4
*I *4547:Q O *D sky130_fd_sc_hd__dfrtp_2
*CAP
1 *5017:A 0.000126756
2 *4158:B2 0
3 *4547:Q 0.00016764
4 *687:10 0.000294396
5 *5017:A *3992:A0 0
6 *5017:A *4158:B1 9.50342e-06
7 *5017:A *4788:A 0
8 *687:10 *4158:B1 9.2171e-05
9 *687:10 *4788:A 0
10 *687:10 *969:21 0.000108855
11 *4158:A2 *687:10 0.000178634
12 *4491:CLK *687:10 3.64522e-05
13 *4491:D *5017:A 0
*RES
1 *4547:Q *687:10 7.14 
2 *687:10 *4158:B2 3.6 
3 *687:10 *5017:A 5.745 
*END

*D_NET *688 0.00165631
*CONN
*I *4178:B2 I *D sky130_fd_sc_hd__o32ai_2
*I *4986:A I *D sky130_fd_sc_hd__dlygate4sd3_1
*I *4548:Q O *D sky130_fd_sc_hd__dfrtp_2
*CAP
1 *4178:B2 0.00012131
2 *4986:A 0.000131832
3 *4548:Q 4.25347e-05
4 *688:8 0.000295677
5 *4178:B2 *1009:45 9.1303e-05
6 *4178:B2 *1045:49 0.000131401
7 *4986:A *1045:49 8.53113e-06
8 *4986:A *1045:53 0.000159957
9 *688:8 *3993:A1 4.66826e-05
10 *4063:S *4986:A 8.63479e-05
11 *4173:A2 *4178:B2 0.000377507
12 *4173:A2 *4986:A 0.000158297
13 *4492:D *688:8 4.9253e-06
*RES
1 *4548:Q *688:8 4.395 
2 *688:8 *4986:A 6.975 
3 *688:8 *4178:B2 8.04 
*END

*D_NET *689 0.00136179
*CONN
*I *4059:A1 I *D sky130_fd_sc_hd__mux2_1
*I *4204:B2 I *D sky130_fd_sc_hd__o32ai_4
*I *4549:Q O *D sky130_fd_sc_hd__dfstp_2
*CAP
1 *4059:A1 3.32057e-05
2 *4204:B2 8.75115e-05
3 *4549:Q 0.000156627
4 *689:8 0.000277344
5 *4059:A1 *4281:A2 0.000116165
6 *4059:A1 *4331:B1 0.000107634
7 *4204:B2 *4281:A2 0.000119214
8 *4204:B2 *4331:B1 0.000226841
9 *4204:B2 *4549:SET_B 0
10 *267:54 *689:8 0.000237243
*RES
1 *4549:Q *689:8 5.775 
2 *689:8 *4204:B2 6.255 
3 *689:8 *4059:A1 4.98 
*END

*D_NET *690 0.00197433
*CONN
*I *4237:B2 I *D sky130_fd_sc_hd__o32a_2
*I *4947:A I *D sky130_fd_sc_hd__dlygate4sd3_1
*I *4550:Q O *D sky130_fd_sc_hd__dfrtp_2
*CAP
1 *4237:B2 0.000116097
2 *4947:A 0.000333354
3 *4550:Q 0
4 *690:6 0.000449451
5 *4237:B2 *4237:B1 6.21133e-05
6 *4237:B2 *958:35 0.0001642
7 *4947:A *4060:A0 0.000274654
8 *4947:A *4060:A1 9.27495e-05
9 *4947:A *958:35 0.000143266
10 *4237:A2 *4237:B2 4.82919e-05
11 *4237:A3 *4237:B2 4.43871e-06
12 *4550:D *4237:B2 2.24336e-05
13 *4550:D *4947:A 2.87867e-05
14 *272:57 *4237:B2 0
15 *272:57 *4947:A 0
16 *275:30 *4947:A 0.000186204
17 *622:16 *4237:B2 4.82919e-05
*RES
1 *4550:Q *690:6 3.6 
2 *690:6 *4947:A 11.55 
3 *690:6 *4237:B2 6.705 
*END

*D_NET *691 0.000988329
*CONN
*I *4286:A1 I *D sky130_fd_sc_hd__o22a_2
*I *4903:A I *D sky130_fd_sc_hd__dlygate4sd3_1
*I *4551:Q O *D sky130_fd_sc_hd__dfrtp_2
*CAP
1 *4286:A1 6.70047e-05
2 *4903:A 0.000107926
3 *4551:Q 0
4 *691:6 0.00017493
5 *4286:A1 *4215:A2_N 1.1578e-05
6 *4286:A1 *4286:A2 6.07822e-05
7 *4286:A1 *958:109 6.37505e-05
8 *4286:A1 *1040:18 0
9 *4903:A *958:109 6.55406e-05
10 *3994:S *4286:A1 0.000221366
11 *3994:S *4903:A 0.000120186
12 *273:38 *4903:A 9.52646e-05
*RES
1 *4551:Q *691:6 3.6 
2 *691:6 *4903:A 6.465 
3 *691:6 *4286:A1 6.255 
*END

*D_NET *692 0.00194286
*CONN
*I *4980:A I *D sky130_fd_sc_hd__dlygate4sd3_1
*I *4336:A1 I *D sky130_fd_sc_hd__o22ai_2
*I *4552:Q O *D sky130_fd_sc_hd__dfrtp_2
*CAP
1 *4980:A 0.000116572
2 *4336:A1 0.00022421
3 *4552:Q 0
4 *692:6 0.000340782
5 *4336:A1 *4173:B1 0.000121036
6 *4336:A1 *4336:A2 0.000491163
7 *4336:A1 *4496:RESET_B 8.73147e-06
8 *4980:A *4336:A2 0.000221366
9 *272:112 *4336:A1 7.23602e-05
10 *272:112 *4980:A 7.63883e-05
11 *272:149 *4980:A 0.000152814
12 *280:95 *4336:A1 5.83121e-06
13 *636:10 *4336:A1 0.000111607
*RES
1 *4552:Q *692:6 3.6 
2 *692:6 *4336:A1 9.54 
3 *692:6 *4980:A 7.05 
*END

*D_NET *693 0.00140013
*CONN
*I *4369:A1 I *D sky130_fd_sc_hd__o221a_2
*I *4938:A I *D sky130_fd_sc_hd__dlygate4sd3_1
*I *4553:Q O *D sky130_fd_sc_hd__dfrtp_2
*CAP
1 *4369:A1 1.51124e-05
2 *4938:A 0.000103753
3 *4553:Q 0.000235828
4 *693:10 0.000354693
5 *4369:A1 *947:34 1.83756e-05
6 *4938:A *4369:A2 1.70935e-05
7 *4938:A *4505:RESET_B 7.6664e-05
8 *693:10 *4369:A2 1.15688e-05
9 *693:10 *4505:RESET_B 8.08153e-06
10 *693:10 *986:65 0
11 *4369:B1 *693:10 0.000157595
12 *4369:B2 *4938:A 5.4256e-05
13 *4374:A *4369:A1 2.75145e-05
14 *4912:A *693:10 0.000161529
15 *645:12 *693:10 0.000158066
*RES
1 *4553:Q *693:10 8.61 
2 *693:10 *4938:A 6.195 
3 *693:10 *4369:A1 4.05 
*END

*D_NET *694 0.012887
*CONN
*I *3975:A I *D sky130_fd_sc_hd__nand2_2
*I *3983:A I *D sky130_fd_sc_hd__nand2_2
*I *3981:A I *D sky130_fd_sc_hd__nand2_2
*I *4420:A1 I *D sky130_fd_sc_hd__a41o_2
*I *3977:A I *D sky130_fd_sc_hd__nand2_2
*I *3979:A I *D sky130_fd_sc_hd__nand2_2
*I *3986:A I *D sky130_fd_sc_hd__nor2_2
*I *3963:A I *D sky130_fd_sc_hd__inv_2
*I *4475:A1 I *D sky130_fd_sc_hd__a21o_2
*I *4683:Q O *D sky130_fd_sc_hd__dfrtp_2
*CAP
1 *3975:A 0.000177065
2 *3983:A 0
3 *3981:A 0.000116523
4 *4420:A1 0.000105657
5 *3977:A 0.000162488
6 *3979:A 0.000395875
7 *3986:A 0.000204924
8 *3963:A 5.64938e-05
9 *4475:A1 0.000448106
10 *4683:Q 0
11 *694:101 0.000360595
12 *694:99 0.000381164
13 *694:97 0.000485496
14 *694:76 0.000947816
15 *694:59 0.00137164
16 *694:16 0.0006671
17 *694:14 0.00140626
18 *694:4 0.00129495
19 *3963:A *1029:8 8.65961e-05
20 *3975:A *3975:B 0
21 *3977:A *3984:A1 1.47256e-05
22 *3977:A *1051:25 0.000210617
23 *3979:A *3985:A2 0
24 *3979:A *4618:RESET_B 0
25 *3981:A *3981:B 4.82863e-05
26 *3981:A *836:39 0.000173258
27 *4420:A1 *4420:A2 0.000360611
28 *4475:A1 *836:8 0
29 *4475:A1 *836:39 5.062e-06
30 *4475:A1 *1004:8 0
31 *4475:A1 *1004:10 0
32 *4475:A1 *1005:16 6.28765e-05
33 *4475:A1 *1029:25 0
34 *694:14 *695:8 8.65961e-05
35 *694:59 *3985:A2 4.43871e-06
36 *694:76 *1051:8 4.82919e-05
37 *694:97 *1051:8 7.66083e-05
38 *694:99 *3968:A 0
39 *694:99 *3968:C 7.96996e-05
40 *694:99 *3968:D 7.12228e-06
41 *694:99 *3975:B 0
42 *694:99 *3976:A1 0.000116165
43 *694:99 *1055:10 2.4997e-05
44 *694:101 *3968:D 5.53249e-06
45 *694:101 *4420:A2 0.000216643
46 *3974:B *4475:A1 0
47 *3978:B1_N *694:76 0.000123091
48 *3980:B1_N *3979:A 7.55313e-05
49 *3984:B1_N *694:99 0.000204545
50 *4458:S *4420:A1 0.000200071
51 *4458:S *694:101 8.71001e-05
52 *4475:A2 *4475:A1 7.35729e-05
53 *4678:CLK *3975:A 0.000138808
54 *4678:CLK *694:76 0.000422936
55 *4678:CLK *694:97 0.000199833
56 *4683:CLK *694:14 8.65905e-05
57 *4748:A *3986:A 5.53249e-06
58 *4748:A *694:14 0
59 *4755:A *3986:A 2.7881e-05
60 *4755:A *4475:A1 0
61 *4755:A *694:16 0
62 *4834:A *3979:A 0.000116158
63 *248:43 *3963:A 5.34747e-05
64 *248:43 *694:16 9.47454e-05
65 *251:10 *694:59 5.83121e-06
66 *251:23 *3979:A 5.42386e-05
67 *251:23 *694:59 8.82557e-05
68 *251:23 *694:76 7.10578e-05
69 *254:14 *3979:A 0
70 *263:8 *694:99 3.05295e-05
71 *263:8 *694:101 9.42224e-05
72 *532:18 *4475:A1 9.58678e-06
73 *579:10 *3979:A 3.86607e-05
74 *580:21 *3981:A 9.79963e-05
75 *627:118 *3986:A 0.000276441
*RES
1 *4683:Q *694:4 1.6 
2 *694:4 *694:14 14.39 
3 *694:14 *694:16 2.91 
4 *694:16 *4475:A1 10.545 
5 *694:16 *3963:A 5.085 
6 *694:14 *3986:A 10.735 
7 *694:4 *694:59 7.63 
8 *694:59 *3979:A 13.1 
9 *694:59 *694:76 10.23 
10 *694:76 *3977:A 9.005 
11 *694:76 *694:97 3.83 
12 *694:97 *694:99 5.97 
13 *694:99 *694:101 3.93 
14 *694:101 *4420:A1 7.785 
15 *694:101 *3981:A 6.825 
16 *694:99 *3983:A 3.6 
17 *694:97 *3975:A 7.005 
*END

*D_NET *695 0.0026925
*CONN
*I *4027:A I *D sky130_fd_sc_hd__nand4_2
*I *3989:C I *D sky130_fd_sc_hd__and4b_2
*I *3965:B I *D sky130_fd_sc_hd__nand3b_2
*I *5022:X O *D sky130_fd_sc_hd__clkdlybuf4s25_1
*CAP
1 *4027:A 0
2 *3989:C 0.000109885
3 *3965:B 7.06741e-05
4 *5022:X 0.000467018
5 *695:23 0.000219146
6 *695:8 0.000646954
7 *3965:B *3965:A_N 0
8 *3965:B *3965:C 0.000113372
9 *3989:C *3965:A_N 2.82887e-05
10 *3989:C *3989:B 4.38051e-05
11 *3989:C *4027:B 4.66108e-05
12 *3989:C *718:10 0.000109995
13 *3989:C *1027:12 7.22354e-05
14 *695:23 *3965:A_N 0
15 *695:23 *3965:C 4.76263e-05
16 *695:23 *1027:12 3.90495e-05
17 *3989:D *3989:C 7.25465e-05
18 *5022:A *695:8 0.000385333
19 *5022:A *695:23 0.000130374
20 *248:68 *3989:C 2.99518e-06
21 *694:14 *695:8 8.65961e-05
*RES
1 *5022:X *695:8 9.57 
2 *695:8 *3965:B 4.98 
3 *695:8 *695:23 4.445 
4 *695:23 *3989:C 8.885 
5 *695:23 *4027:A 1.6 
*END

*D_NET *696 0.0116825
*CONN
*I *3988:A1 I *D sky130_fd_sc_hd__mux2_1
*I *4016:A1 I *D sky130_fd_sc_hd__mux2_1
*I *4026:A1 I *D sky130_fd_sc_hd__mux2_1
*I *3998:A1 I *D sky130_fd_sc_hd__mux2_1
*I *4007:A1 I *D sky130_fd_sc_hd__mux2_1
*I *4054:A0 I *D sky130_fd_sc_hd__mux2_1
*I *4063:A0 I *D sky130_fd_sc_hd__mux2_1
*I *4045:A0 I *D sky130_fd_sc_hd__mux2_1
*I *4036:A0 I *D sky130_fd_sc_hd__mux2_1
*I *5023:X O *D sky130_fd_sc_hd__clkdlybuf4s25_1
*CAP
1 *3988:A1 0.000597157
2 *4016:A1 6.21833e-05
3 *4026:A1 3.89094e-05
4 *3998:A1 0.000201894
5 *4007:A1 0
6 *4054:A0 0.0004216
7 *4063:A0 0.000103293
8 *4045:A0 2.70297e-05
9 *4036:A0 2.91183e-05
10 *5023:X 0.000480917
11 *696:101 0.000990888
12 *696:82 0.00100049
13 *696:59 0.000926153
14 *696:48 0.000564765
15 *696:37 0.000365784
16 *696:33 0.00036796
17 *696:22 0.000310634
18 *696:18 0.00118525
19 *3988:A1 *4066:A0 3.87723e-05
20 *3988:A1 *4066:A1 4.82919e-05
21 *3988:A1 *4066:S 0.000393029
22 *3998:A1 *4369:A2 0
23 *3998:A1 *891:26 0.000136604
24 *3998:A1 *947:26 0.000440129
25 *4026:A1 *4026:A0 5.83121e-06
26 *4036:A0 *4036:A1 4.99619e-05
27 *4045:A0 *847:22 2.49909e-05
28 *4054:A0 *4054:A1 1.82563e-05
29 *696:18 *4011:A1 0
30 *696:18 *4484:S 9.66106e-05
31 *696:33 *4036:A1 0
32 *696:48 *4045:A1 6.21647e-05
33 *696:82 *4007:A0 4.82863e-05
34 *696:101 *4007:A0 0.000457696
35 *696:101 *4026:A0 2.76908e-05
36 *696:101 *4369:A2 0
37 *696:101 *891:26 0.00037658
38 *4036:S *4036:A0 5.05437e-05
39 *4063:S *4063:A0 5.49293e-05
40 *4374:A *3998:A1 0
41 *4489:D *3988:A1 7.35813e-05
42 *4497:D *3998:A1 0
43 *4505:D *4054:A0 0.000114492
44 *4505:D *696:59 0
45 *4505:D *696:82 0
46 *4513:D *696:18 9.50342e-06
47 *4513:D *696:22 0
48 *4513:D *696:33 0
49 *4521:CLK *696:82 0
50 *4537:CLK *696:48 0
51 *4537:CLK *696:59 0
52 *4545:D *4054:A0 4.43871e-06
53 *4553:D *4063:A0 2.69217e-05
54 *4553:D *696:59 0
55 *4686:D *696:18 0.000116158
56 *5089:A *696:37 0
57 *5092:A *696:82 3.96737e-05
58 *5092:A *696:101 0.000113809
59 *268:87 *696:37 1.11262e-05
60 *268:101 *4016:A1 2.02052e-05
61 *268:101 *696:18 0
62 *268:101 *696:22 0.000112978
63 *268:101 *696:33 0.000113181
64 *272:149 *4054:A0 8.65905e-05
65 *272:149 *696:48 0
66 *273:86 *696:48 7.763e-05
67 *273:86 *696:59 0.000168063
68 *273:86 *696:82 0.000177179
69 *273:94 *696:37 7.40338e-05
70 *273:94 *696:48 4.59022e-06
71 *618:65 *4054:A0 0.000118485
72 *619:12 *696:18 0
73 *619:16 *696:18 5.88148e-05
74 *621:106 *4054:A0 1.33285e-05
75 *621:117 *4054:A0 6.71882e-05
76 *621:117 *696:59 0
77 *653:10 *3988:A1 7.60965e-05
*RES
1 *5023:X *696:18 13.49 
2 *696:18 *696:22 4.4 
3 *696:22 *4036:A0 4.395 
4 *696:22 *696:33 3.5475 
5 *696:33 *696:37 2.7225 
6 *696:37 *4045:A0 4.05 
7 *696:37 *696:48 4.185 
8 *696:48 *4063:A0 5.43 
9 *696:48 *696:59 4.95 
10 *696:59 *4054:A0 13.33 
11 *696:59 *696:82 6.05 
12 *696:82 *4007:A1 1.6 
13 *696:82 *696:101 15.55 
14 *696:101 *3998:A1 10.805 
15 *696:101 *4026:A1 2.05 
16 *696:33 *4016:A1 4.6275 
17 *696:18 *3988:A1 12.865 
*END

*D_NET *697 0.00241632
*CONN
*I *5037:A I *D sky130_fd_sc_hd__clkbuf_4
*I *4572:RESET_B I *D sky130_fd_sc_hd__dfrtp_2
*I *4723:X O *D sky130_fd_sc_hd__clkdlybuf4s25_1
*CAP
1 *5037:A 0.000217461
2 *4572:RESET_B 0.000211725
3 *4723:X 0.000223257
4 *697:12 0.000652442
5 *4572:RESET_B *4106:S 0.00038201
6 *4572:RESET_B *4183:A1 4.24575e-05
7 *4572:RESET_B *4185:A1 2.40101e-05
8 *4572:RESET_B *4580:RESET_B 9.50342e-06
9 *4572:RESET_B *1066:10 0.000207186
10 *4572:RESET_B *1082:23 7.27298e-06
11 *5037:A *1082:23 1.45347e-05
12 *697:12 *4106:S 0.00015829
13 *697:12 *4580:D 7.06865e-05
14 *697:12 *4580:RESET_B 8.98854e-05
15 *697:12 *4723:A 4.85494e-05
16 *697:12 *4895:A 2.66765e-05
17 *697:12 *702:14 0
18 *4580:CLK *5037:A 3.03775e-05
*RES
1 *4723:X *697:12 9.995 
2 *697:12 *4572:RESET_B 9.6325 
3 *697:12 *5037:A 4.135 
*END

*D_NET *698 0.00729071
*CONN
*I *4521:RESET_B I *D sky130_fd_sc_hd__dfrtp_2
*I *4489:RESET_B I *D sky130_fd_sc_hd__dfrtp_2
*I *4497:RESET_B I *D sky130_fd_sc_hd__dfrtp_2
*I *4593:RESET_B I *D sky130_fd_sc_hd__dfrtp_2
*I *4585:RESET_B I *D sky130_fd_sc_hd__dfrtp_2
*I *4577:RESET_B I *D sky130_fd_sc_hd__dfrtp_2
*I *4569:RESET_B I *D sky130_fd_sc_hd__dfrtp_2
*I *4561:RESET_B I *D sky130_fd_sc_hd__dfrtp_2
*I *4564:RESET_B I *D sky130_fd_sc_hd__dfrtp_2
*I *5037:X O *D sky130_fd_sc_hd__clkbuf_4
*CAP
1 *4521:RESET_B 0.000144256
2 *4489:RESET_B 0.000132195
3 *4497:RESET_B 0.000541528
4 *4593:RESET_B 9.99187e-05
5 *4585:RESET_B 0
6 *4577:RESET_B 0
7 *4569:RESET_B 0.000132195
8 *4561:RESET_B 0.00054055
9 *4564:RESET_B 0.000739142
10 *5037:X 0.000333514
11 *698:71 0.000711686
12 *698:64 0.000447277
13 *698:53 0.000422243
14 *698:46 0.000324384
15 *4489:RESET_B *3988:A0 0
16 *4489:RESET_B *997:37 2.40185e-05
17 *4497:RESET_B *3998:A0 0
18 *4497:RESET_B *4183:A1 0
19 *4521:RESET_B *891:26 8.07616e-05
20 *4521:RESET_B *947:26 0
21 *4561:RESET_B *1063:10 8.57024e-05
22 *4564:RESET_B *4098:A0 4.05358e-05
23 *4564:RESET_B *4106:S 5.78185e-05
24 *4564:RESET_B *4580:D 0.000158072
25 *4564:RESET_B *4596:D 0
26 *4564:RESET_B *4895:A 9.27495e-05
27 *4564:RESET_B *702:14 5.02217e-05
28 *4564:RESET_B *1066:10 4.99619e-05
29 *4593:RESET_B *4183:A1 3.36417e-06
30 *698:46 *4071:S 9.71067e-05
31 *698:53 *4071:S 5.39961e-05
32 *698:53 *997:24 0.000153794
33 *698:53 *997:55 0.000172845
34 *698:64 *4095:S 2.41556e-05
35 *698:64 *997:55 0.000103821
36 *4362:B2 *4497:RESET_B 3.23663e-05
37 *4362:B2 *4521:RESET_B 8.26602e-05
38 *4363:B1 *4497:RESET_B 9.62187e-05
39 *4363:B1 *4593:RESET_B 1.19028e-05
40 *4366:C1 *4521:RESET_B 4.70393e-05
41 *4561:CLK *4489:RESET_B 8.07616e-05
42 *4561:CLK *698:46 0
43 *4564:CLK *4561:RESET_B 0.000316421
44 *4564:D *4561:RESET_B 0.000124895
45 *4593:D *4497:RESET_B 9.55514e-05
46 *4593:D *4593:RESET_B 1.1392e-05
47 *4593:D *698:64 6.77013e-05
48 *4593:D *698:71 0.000340299
49 *4882:A *4497:RESET_B 0.00016569
50 *4954:A *698:71 0
51 *4996:A *698:53 0
52 *4996:A *698:64 0
53 *280:69 *698:71 0
*RES
1 *5037:X *4564:RESET_B 11.9525 
2 *4564:RESET_B *4561:RESET_B 7.14 
3 *4561:RESET_B *698:46 4.5725 
4 *698:46 *4569:RESET_B 2 
5 *698:46 *698:53 4.44 
6 *698:53 *4577:RESET_B 2 
7 *698:53 *698:64 4.485 
8 *698:64 *4585:RESET_B 2 
9 *698:64 *698:71 4.185 
10 *698:71 *4593:RESET_B 3.4325 
11 *698:71 *4497:RESET_B 9.6875 
12 *4569:RESET_B *4489:RESET_B 6.52 
13 *4497:RESET_B *4521:RESET_B 7.1425 
*END

*D_NET *699 0.0049357
*CONN
*I *4601:RESET_B I *D sky130_fd_sc_hd__dfrtp_2
*I *4617:RESET_B I *D sky130_fd_sc_hd__dfrtp_2
*I *4609:RESET_B I *D sky130_fd_sc_hd__dfrtp_2
*I *4588:RESET_B I *D sky130_fd_sc_hd__dfrtp_2
*I *4580:RESET_B I *D sky130_fd_sc_hd__dfrtp_2
*I *4724:X O *D sky130_fd_sc_hd__clkdlybuf4s25_1
*CAP
1 *4601:RESET_B 0.000124247
2 *4617:RESET_B 4.89431e-05
3 *4609:RESET_B 0.00067794
4 *4588:RESET_B 0
5 *4580:RESET_B 0.000372531
6 *4724:X 0.000244492
7 *699:53 0.000209278
8 *699:31 0.000769892
9 *4580:RESET_B *4106:S 8.34348e-05
10 *4580:RESET_B *4723:A 3.00381e-05
11 *4580:RESET_B *1066:10 7.23602e-05
12 *4580:RESET_B *1082:23 1.30699e-05
13 *4601:RESET_B *4363:A1 0.000206447
14 *4601:RESET_B *891:26 0.000116497
15 *4601:RESET_B *1103:6 4.40889e-05
16 *4609:RESET_B *4098:A1 7.1624e-05
17 *4609:RESET_B *4182:B 0.000261228
18 *4609:RESET_B *4183:A1 0.000224333
19 *4609:RESET_B *4362:A1 7.69078e-05
20 *4609:RESET_B *4917:A 0
21 *4609:RESET_B *998:63 0
22 *4609:RESET_B *1066:10 3.18137e-05
23 *4609:RESET_B *1111:6 3.57349e-05
24 *699:31 *4917:A 0
25 *699:31 *1066:10 0.000107162
26 *699:53 *4363:A1 0.000117825
27 *4364:C1 *4601:RESET_B 3.46656e-05
28 *4369:C1 *4609:RESET_B 0.000143494
29 *4374:A *4617:RESET_B 2.20753e-05
30 *4572:RESET_B *4580:RESET_B 9.50342e-06
31 *4697:A *4601:RESET_B 0.000260155
32 *4697:A *699:53 0.000117825
33 *4965:A *4609:RESET_B 0.000227857
34 *280:51 *4609:RESET_B 9.03502e-05
35 *697:12 *4580:RESET_B 8.98854e-05
*RES
1 *4724:X *4580:RESET_B 10.5275 
2 *4580:RESET_B *699:31 4.91 
3 *699:31 *4588:RESET_B 2 
4 *699:31 *4609:RESET_B 16.1225 
5 *4609:RESET_B *699:53 3.38 
6 *699:53 *4617:RESET_B 2.7575 
7 *699:53 *4601:RESET_B 6.2525 
*END

*D_NET *700 0.00465231
*CONN
*I *5038:A I *D sky130_fd_sc_hd__clkbuf_4
*I *4578:RESET_B I *D sky130_fd_sc_hd__dfrtp_2
*I *4491:RESET_B I *D sky130_fd_sc_hd__dfrtp_2
*I *4725:X O *D sky130_fd_sc_hd__clkdlybuf4s25_1
*CAP
1 *5038:A 7.43284e-05
2 *4578:RESET_B 0.000153326
3 *4491:RESET_B 0.000400557
4 *4725:X 0
5 *700:10 0.00133331
6 *700:4 0.000853751
7 *4491:RESET_B *4578:D 0.00012657
8 *4491:RESET_B *969:33 0.000100009
9 *4578:RESET_B *987:49 7.94826e-05
10 *4578:RESET_B *1013:42 0.000338132
11 *5038:A *4096:A0 1.62913e-05
12 *5038:A *701:14 2.50702e-05
13 *700:10 *4096:A0 0.000500245
14 *700:10 *4096:A1 2.30292e-05
15 *700:10 *4586:D 0
16 *700:10 *1013:42 0.000227734
17 *700:10 *1013:44 5.56629e-05
18 *4570:CLK *4578:RESET_B 5.10957e-05
19 *4578:CLK *4578:RESET_B 2.34022e-05
20 *4740:A *700:10 3.41952e-05
21 *4951:A *700:10 3.0807e-05
22 *4984:A *4578:RESET_B 8.93017e-05
23 *4984:A *700:10 3.09164e-05
24 *3:30 *700:10 0
25 *626:53 *4578:RESET_B 8.50976e-05
*RES
1 *4725:X *700:4 1.6 
2 *700:4 *700:10 13.55 
3 *700:10 *4491:RESET_B 7.9175 
4 *700:10 *4578:RESET_B 6.9275 
5 *700:4 *5038:A 2.755 
*END

*D_NET *701 0.0102986
*CONN
*I *4499:SET_B I *D sky130_fd_sc_hd__dfstp_2
*I *4515:RESET_B I *D sky130_fd_sc_hd__dfrtp_2
*I *4558:RESET_B I *D sky130_fd_sc_hd__dfrtp_2
*I *4555:RESET_B I *D sky130_fd_sc_hd__dfrtp_2
*I *4684:RESET_B I *D sky130_fd_sc_hd__dfrtp_2
*I *4554:RESET_B I *D sky130_fd_sc_hd__dfrtp_2
*I *4562:RESET_B I *D sky130_fd_sc_hd__dfrtp_2
*I *4570:RESET_B I *D sky130_fd_sc_hd__dfrtp_2
*I *5038:X O *D sky130_fd_sc_hd__clkbuf_4
*CAP
1 *4499:SET_B 0.000152145
2 *4515:RESET_B 7.35937e-05
3 *4558:RESET_B 0.0001737
4 *4555:RESET_B 0.000253391
5 *4684:RESET_B 0.000807368
6 *4554:RESET_B 0
7 *4562:RESET_B 0.000281784
8 *4570:RESET_B 5.36238e-05
9 *5038:X 0.000441471
10 *701:99 0.00068464
11 *701:61 0.000745784
12 *701:49 0.000698573
13 *701:40 0.000115736
14 *701:14 0.000692557
15 *4555:RESET_B *4065:A0 0
16 *4555:RESET_B *800:14 1.37864e-05
17 *4555:RESET_B *1000:22 0
18 *4555:RESET_B *1000:24 0
19 *4562:RESET_B *4072:A1 0.00027773
20 *4562:RESET_B *4080:A0 0.000202088
21 *4562:RESET_B *4080:A1 4.30677e-05
22 *4562:RESET_B *4685:RESET_B 0.000130007
23 *4562:RESET_B *1000:24 0.000202314
24 *4562:RESET_B *1000:26 0.000152326
25 *4570:RESET_B *1021:64 7.33799e-05
26 *4684:RESET_B *4064:A0 0.00016063
27 *4684:RESET_B *4842:A 1.7386e-05
28 *701:14 *4096:A0 0.000123295
29 *701:14 *4096:S 0.000322277
30 *701:14 *4142:A 1.97442e-05
31 *701:14 *4142:B 0
32 *701:14 *4143:C1 8.53113e-06
33 *701:14 *4725:A 0.000158015
34 *701:14 *702:54 0.000102776
35 *701:14 *982:77 8.58284e-05
36 *701:14 *1000:28 0.000332913
37 *701:14 *1021:64 0.000108098
38 *701:40 *4072:A1 0.000363164
39 *701:40 *4685:RESET_B 0.000363164
40 *701:49 *4072:A1 9.30912e-05
41 *701:49 *4685:RESET_B 8.35878e-05
42 *701:61 *4064:A0 4.66108e-05
43 *701:61 *800:14 0.00033961
44 *4499:D *4499:SET_B 0
45 *4554:D *4684:RESET_B 4.82919e-05
46 *4555:D *4555:RESET_B 2.99518e-06
47 *4558:CLK *4555:RESET_B 0
48 *4558:D *4555:RESET_B 0
49 *4558:D *4558:RESET_B 9.12662e-05
50 *4740:A *701:14 0.000459372
51 *4869:A *4499:SET_B 0
52 *4869:A *4515:RESET_B 0
53 *4869:A *701:99 0.000122331
54 *5038:A *701:14 2.50702e-05
55 *270:131 *4499:SET_B 0
56 *625:89 *701:99 0.000180373
57 *625:98 *701:99 7.56919e-05
58 *639:10 *4499:SET_B 0.000157179
59 *639:10 *4515:RESET_B 0.000138257
*RES
1 *5038:X *701:14 18.74 
2 *701:14 *4570:RESET_B 1.0875 
3 *701:14 *4562:RESET_B 11.29 
4 *4562:RESET_B *701:40 6.185 
5 *701:40 *4554:RESET_B 2 
6 *701:40 *701:49 3.125 
7 *701:49 *4684:RESET_B 5.0025 
8 *701:49 *701:61 4.245 
9 *701:61 *4555:RESET_B 7.9075 
10 *701:61 *4558:RESET_B 2.5875 
11 *4684:RESET_B *701:99 9.5375 
12 *701:99 *4515:RESET_B 3.635 
13 *701:99 *4499:SET_B 4.91 
*END

*D_NET *702 0.0135733
*CONN
*I *4685:RESET_B I *D sky130_fd_sc_hd__dfrtp_2
*I *4586:RESET_B I *D sky130_fd_sc_hd__dfrtp_2
*I *4725:A I *D sky130_fd_sc_hd__clkdlybuf4s25_1
*I *4594:RESET_B I *D sky130_fd_sc_hd__dfrtp_2
*I *4602:RESET_B I *D sky130_fd_sc_hd__dfrtp_2
*I *4724:A I *D sky130_fd_sc_hd__clkdlybuf4s25_1
*I *4723:A I *D sky130_fd_sc_hd__clkdlybuf4s25_1
*I *4726:X O *D sky130_fd_sc_hd__clkdlybuf4s25_1
*CAP
1 *4685:RESET_B 0.000970438
2 *4586:RESET_B 0.000970438
3 *4725:A 7.16992e-05
4 *4594:RESET_B 0.000185339
5 *4602:RESET_B 0.000762621
6 *4724:A 0
7 *4723:A 0.000318542
8 *4726:X 4.16082e-05
9 *702:54 0.00083432
10 *702:28 0.000997055
11 *702:14 0.000781835
12 *702:8 0.00131662
13 *4594:RESET_B *4104:S 4.19967e-05
14 *4594:RESET_B *4183:C1 0.00037354
15 *4594:RESET_B *999:16 0
16 *4685:RESET_B *4064:A1 0.000114469
17 *4685:RESET_B *4072:A1 0.000132941
18 *4685:RESET_B *4080:A0 1.44177e-05
19 *4685:RESET_B *4080:A1 0.00011852
20 *4685:RESET_B *4096:A1 0.000128357
21 *4685:RESET_B *985:16 9.38868e-05
22 *4685:RESET_B *1000:22 0
23 *4685:RESET_B *1000:24 0
24 *4685:RESET_B *1072:10 6.74316e-05
25 *4685:RESET_B *1080:10 0.00012696
26 *4725:A *4096:S 9.39388e-06
27 *4725:A *4142:A 6.86818e-05
28 *4725:A *4950:A 0.000132416
29 *702:8 *4098:A0 1.56428e-05
30 *702:14 *4098:A0 0
31 *702:14 *4180:A_N 5.21458e-05
32 *702:14 *4183:C1 3.67658e-05
33 *702:14 *4184:B2 0.000170853
34 *702:14 *4596:D 0
35 *702:14 *4895:A 3.84409e-05
36 *702:14 *1074:10 6.90254e-05
37 *702:28 *4182:A 0.000167044
38 *702:28 *4183:C1 0.00061403
39 *702:28 *4184:B1 0
40 *702:28 *4184:B2 0.000107987
41 *702:28 *1005:59 0.0010417
42 *702:28 *1074:10 0.000215905
43 *702:54 *4104:A1 7.35813e-05
44 *702:54 *4104:S 2.78506e-05
45 *702:54 *4142:A 0.000111049
46 *702:54 *4142:B 3.00381e-05
47 *702:54 *4146:B2 8.23457e-05
48 *702:54 *4602:D 0.000130363
49 *4373:A *702:28 0.000635587
50 *4562:D *4685:RESET_B 0
51 *4562:RESET_B *4685:RESET_B 0.000130007
52 *4564:RESET_B *702:14 5.02217e-05
53 *4580:RESET_B *4723:A 3.00381e-05
54 *4610:D *4594:RESET_B 0
55 *4610:D *702:28 0
56 *4837:A *702:14 0.000289004
57 *4951:A *4725:A 0
58 *3:30 *4685:RESET_B 0
59 *289:37 *702:28 0
60 *625:142 *4685:RESET_B 2.40101e-05
61 *697:12 *4723:A 4.85494e-05
62 *697:12 *702:14 0
63 *701:14 *4725:A 0.000158015
64 *701:14 *702:54 0.000102776
65 *701:40 *4685:RESET_B 0.000363164
66 *701:49 *4685:RESET_B 8.35878e-05
*RES
1 *4726:X *702:8 4.05 
2 *702:8 *702:14 12.245 
3 *702:14 *4723:A 6.88 
4 *702:14 *4724:A 1.6 
5 *702:8 *702:28 22.8 
6 *702:28 *4602:RESET_B 2 
7 *702:28 *4594:RESET_B 6.44 
8 *4602:RESET_B *702:54 12.1775 
9 *702:54 *4725:A 6 
10 *702:54 *4586:RESET_B 2 
11 *4586:RESET_B *4685:RESET_B 24.9025 
*END

*D_NET *703 0.00699713
*CONN
*I *4606:RESET_B I *D sky130_fd_sc_hd__dfrtp_2
*I *4610:RESET_B I *D sky130_fd_sc_hd__dfrtp_2
*I *5039:A I *D sky130_fd_sc_hd__buf_2
*I *4614:RESET_B I *D sky130_fd_sc_hd__dfrtp_2
*I *4595:RESET_B I *D sky130_fd_sc_hd__dfrtp_2
*I *4727:X O *D sky130_fd_sc_hd__clkdlybuf4s25_1
*CAP
1 *4606:RESET_B 0.000126169
2 *4610:RESET_B 0.00100797
3 *5039:A 0.000174661
4 *4614:RESET_B 0.000514227
5 *4595:RESET_B 0.000825415
6 *4727:X 0.000136527
7 *703:47 0.00113414
8 *4595:RESET_B *4727:A 0.000139753
9 *4595:RESET_B *1019:52 0.000497371
10 *4606:RESET_B *4124:S 0
11 *4610:RESET_B *4124:S 0
12 *4610:RESET_B *4181:D 0
13 *4610:RESET_B *1112:10 9.2741e-05
14 *4614:RESET_B *4727:A 0.000129989
15 *4614:RESET_B *1019:52 0.00019311
16 *5039:A *4105:A1 0.000139238
17 *5039:A *4105:S 0.00012476
18 *4247:A2 *4614:RESET_B 0.000270415
19 *4603:D *5039:A 5.84902e-05
20 *4740:A *4610:RESET_B 5.30673e-05
21 *4743:A *4614:RESET_B 7.57202e-05
22 *4960:A *4610:RESET_B 0.000118513
23 *279:10 *4610:RESET_B 0
24 *279:21 *4610:RESET_B 0
25 *313:10 *5039:A 0.000133749
26 *392:18 *4606:RESET_B 0.000239613
27 *392:18 *4610:RESET_B 0.000123517
28 *611:49 *4610:RESET_B 0.000510493
29 *626:97 *4614:RESET_B 1.95248e-05
30 *626:112 *4614:RESET_B 0.000157957
*RES
1 *4727:X *4595:RESET_B 6.1375 
2 *4595:RESET_B *4614:RESET_B 9.9 
3 *4595:RESET_B *5039:A 10.04 
4 *4614:RESET_B *703:47 2 
5 *703:47 *4610:RESET_B 20.1725 
6 *703:47 *4606:RESET_B 4.91 
*END

*D_NET *704 0.00724899
*CONN
*I *4574:RESET_B I *D sky130_fd_sc_hd__dfrtp_2
*I *4566:RESET_B I *D sky130_fd_sc_hd__dfrtp_2
*I *4582:RESET_B I *D sky130_fd_sc_hd__dfrtp_2
*I *4590:RESET_B I *D sky130_fd_sc_hd__dfrtp_2
*I *4563:RESET_B I *D sky130_fd_sc_hd__dfrtp_2
*I *4587:RESET_B I *D sky130_fd_sc_hd__dfrtp_2
*I *5039:X O *D sky130_fd_sc_hd__buf_2
*CAP
1 *4574:RESET_B 2.6059e-05
2 *4566:RESET_B 7.23996e-05
3 *4582:RESET_B 0.000529068
4 *4590:RESET_B 0.000917544
5 *4563:RESET_B 0
6 *4587:RESET_B 4.89431e-05
7 *5039:X 0.000275183
8 *704:76 0.000267375
9 *704:22 0.000639418
10 *704:10 0.000406152
11 *4566:RESET_B *4092:A1 7.89689e-05
12 *4566:RESET_B *1005:46 0
13 *4574:RESET_B *1005:36 1.5913e-05
14 *4582:RESET_B *4245:C1 0.000133183
15 *4582:RESET_B *4963:A 0
16 *4582:RESET_B *1057:28 0.000367873
17 *4582:RESET_B *1092:10 3.80583e-05
18 *4590:RESET_B *4073:A1 2.25223e-05
19 *4590:RESET_B *4097:A1 0.000144864
20 *4590:RESET_B *1003:16 9.40874e-05
21 *4590:RESET_B *1092:10 0.000120741
22 *704:10 *4073:A1 0.000357269
23 *704:10 *4097:A0 3.23391e-05
24 *704:10 *4105:A1 9.86611e-05
25 *704:10 *4105:S 0.000309452
26 *704:10 *1003:16 0.000133075
27 *704:10 *1003:18 0.000150349
28 *704:10 *1029:45 0.000122331
29 *704:22 *4073:A1 0.000261899
30 *704:22 *1003:16 0.000269048
31 *704:76 *4065:A0 2.8185e-05
32 *704:76 *4084:A0 0.000142265
33 *704:76 *4092:A1 5.47609e-05
34 *704:76 *4752:A 0
35 *704:76 *1005:36 7.18452e-06
36 *704:76 *1005:46 0
37 *704:76 *1084:8 9.02259e-05
38 *4590:CLK *4582:RESET_B 5.78829e-05
39 *4598:CLK *4587:RESET_B 2.20753e-05
40 *4748:A *4590:RESET_B 0.000156313
41 *4805:A *4590:RESET_B 7.65356e-05
42 *271:6 *4582:RESET_B 0.00043116
43 *271:6 *4590:RESET_B 0.00024963
*RES
1 *5039:X *704:10 11.73 
2 *704:10 *4587:RESET_B 2.7575 
3 *704:10 *704:22 3.165 
4 *704:22 *4563:RESET_B 2 
5 *704:22 *4590:RESET_B 12.6125 
6 *4590:RESET_B *4582:RESET_B 14.2075 
7 *4582:RESET_B *704:76 6.1925 
8 *704:76 *4566:RESET_B 3.635 
9 *704:76 *4574:RESET_B 2.3975 
*END

*D_NET *705 0.0122084
*CONN
*I *4596:RESET_B I *D sky130_fd_sc_hd__dfrtp_2
*I *4598:RESET_B I *D sky130_fd_sc_hd__dfrtp_2
*I *4727:A I *D sky130_fd_sc_hd__clkdlybuf4s25_1
*I *4604:RESET_B I *D sky130_fd_sc_hd__dfrtp_2
*I *4612:RESET_B I *D sky130_fd_sc_hd__dfrtp_2
*I *4728:X O *D sky130_fd_sc_hd__clkdlybuf4s25_1
*CAP
1 *4596:RESET_B 0.00032934
2 *4598:RESET_B 0.000375176
3 *4727:A 0.000747312
4 *4604:RESET_B 0.000371962
5 *4612:RESET_B 0.000242663
6 *4728:X 4.7631e-05
7 *705:38 0.00274809
8 *705:10 0.000393213
9 *705:8 0.00178116
10 *4596:RESET_B *4604:D 0.000121023
11 *4596:RESET_B *1098:8 4.82863e-05
12 *4598:RESET_B *4108:A0 9.1303e-05
13 *4598:RESET_B *4245:A1 9.71067e-05
14 *4598:RESET_B *4248:A1 0.000279493
15 *4598:RESET_B *1011:32 0.000251329
16 *4598:RESET_B *1011:69 7.07722e-05
17 *4598:RESET_B *1011:80 0.000289903
18 *4612:RESET_B *4971:A 9.37731e-05
19 *4727:A *4595:D 5.39961e-05
20 *4727:A *1019:52 0.000119007
21 *4727:A *1097:12 0.000244886
22 *705:8 *4181:C 0.000124895
23 *705:10 *4122:A1 0
24 *705:10 *4181:C 0.000132096
25 *705:10 *4971:A 9.78082e-05
26 *705:38 *4132:B 5.16348e-05
27 *705:38 *4181:C 2.92496e-05
28 *705:38 *4248:A1 9.50342e-06
29 *705:38 *4959:A 0.000221744
30 *705:38 *1011:32 0.000205921
31 *705:38 *1011:38 7.44453e-05
32 *705:38 *1012:48 0
33 *705:38 *1026:42 0.000155928
34 *4239:B2 *705:38 2.59981e-05
35 *4247:A2 *4598:RESET_B 0.000112803
36 *4287:A *705:38 7.17811e-05
37 *4320:B1 *705:38 0
38 *4340:A2 *705:38 0.000126399
39 *4379:B *705:38 0
40 *4380:B *705:38 6.86563e-05
41 *4381:B *705:38 7.60259e-05
42 *4384:A *705:38 0
43 *4595:RESET_B *4727:A 0.000139753
44 *4598:D *4598:RESET_B 0
45 *4612:D *4612:RESET_B 0.0001249
46 *4614:RESET_B *4727:A 0.000129989
47 *4744:A *4727:A 0.00042453
48 *297:12 *705:38 9.84962e-05
49 *313:10 *4727:A 0
50 *392:18 *705:38 2.39642e-05
51 *392:31 *705:38 0.000339294
52 *392:41 *705:38 0.000140912
53 *417:12 *705:38 6.97199e-05
54 *430:10 *705:38 0
55 *478:16 *705:38 0
56 *617:14 *4596:RESET_B 9.76918e-05
57 *617:14 *4604:RESET_B 4.70393e-05
58 *617:16 *4596:RESET_B 0.00012459
59 *626:112 *4727:A 6.52265e-05
*RES
1 *4728:X *705:8 4.74 
2 *705:8 *705:10 2.655 
3 *705:10 *4612:RESET_B 5.7125 
4 *705:10 *4604:RESET_B 2.7425 
5 *705:8 *705:38 32.115 
6 *705:38 *4727:A 21.205 
7 *705:38 *4598:RESET_B 13.325 
8 *4604:RESET_B *4596:RESET_B 5.76 
*END

*D_NET *706 0.0135889
*CONN
*I *4728:A I *D sky130_fd_sc_hd__clkdlybuf4s25_1
*I *4571:RESET_B I *D sky130_fd_sc_hd__dfrtp_2
*I *4579:RESET_B I *D sky130_fd_sc_hd__dfrtp_2
*I *4611:RESET_B I *D sky130_fd_sc_hd__dfrtp_2
*I *4674:RESET_B I *D sky130_fd_sc_hd__dfrtp_2
*I *4603:RESET_B I *D sky130_fd_sc_hd__dfrtp_2
*I *4675:RESET_B I *D sky130_fd_sc_hd__dfrtp_2
*I *4676:RESET_B I *D sky130_fd_sc_hd__dfrtp_2
*I *4729:X O *D sky130_fd_sc_hd__clkdlybuf4s25_1
*CAP
1 *4728:A 0.00178973
2 *4571:RESET_B 0.000207418
3 *4579:RESET_B 0
4 *4611:RESET_B 0.002093
5 *4674:RESET_B 0.000307958
6 *4603:RESET_B 0.000671365
7 *4675:RESET_B 0.000538158
8 *4676:RESET_B 0.000879979
9 *4729:X 9.73191e-06
10 *706:73 0.00076772
11 *706:61 0.000863577
12 *706:6 0.000448547
13 *4571:RESET_B *4164:A_N 0.000129047
14 *4571:RESET_B *4164:C 0
15 *4571:RESET_B *1005:36 6.00003e-05
16 *4571:RESET_B *1065:10 4.75576e-05
17 *4571:RESET_B *1065:14 2.4997e-05
18 *4571:RESET_B *1073:8 9.31061e-05
19 *4603:RESET_B *4729:A 0.000116165
20 *4603:RESET_B *4802:A 0.000187381
21 *4611:RESET_B *4121:A1 0
22 *4611:RESET_B *4121:S 0.000210144
23 *4611:RESET_B *4611:D 0
24 *4674:RESET_B *4775:A 1.43521e-05
25 *4674:RESET_B *1004:46 2.40101e-05
26 *4674:RESET_B *1029:25 0
27 *4674:RESET_B *1129:16 0
28 *4674:RESET_B *1129:50 0
29 *4675:RESET_B *4729:A 7.57202e-05
30 *4675:RESET_B *1019:26 0
31 *4675:RESET_B *1021:8 6.87923e-05
32 *4675:RESET_B *1021:30 3.86607e-05
33 *4675:RESET_B *1130:27 5.64226e-05
34 *4676:RESET_B *1130:8 0
35 *4676:RESET_B *1130:27 0
36 *4728:A *722:52 1.19928e-05
37 *4728:A *1012:38 0
38 *706:6 *4729:A 4.82863e-05
39 *706:73 *4121:A1 0
40 *706:73 *4121:S 0.000304934
41 *706:73 *4162:B_N 0
42 *706:73 *4164:A_N 0.000100162
43 *706:73 *4164:B_N 0
44 *706:73 *4165:A_N 0.000176647
45 *706:73 *4165:C 0
46 *706:73 *4165:D 2.15594e-05
47 *706:73 *1012:38 0
48 *706:73 *1027:26 0.000281619
49 *4166:C *4571:RESET_B 9.47454e-05
50 *4166:C *706:73 0.00020554
51 *4321:B *4728:A 2.9424e-05
52 *4326:D_N *4728:A 0
53 *4339:A1_N *4728:A 0.000578154
54 *4343:B *4728:A 6.52265e-05
55 *4343:C *4728:A 3.66286e-05
56 *4344:A1 *4728:A 9.54399e-05
57 *4344:A2 *4728:A 0.000122337
58 *4385:B1 *4728:A 0.000132319
59 *4387:A *4728:A 1.07797e-05
60 *4388:A *4728:A 4.99619e-05
61 *4478:A *4675:RESET_B 8.49205e-05
62 *4478:A *706:6 4.82863e-05
63 *4478:C *4675:RESET_B 0
64 *4579:D *4571:RESET_B 2.75969e-05
65 *4706:A *4675:RESET_B 0
66 *255:61 *4676:RESET_B 0.00021007
67 *314:25 *4603:RESET_B 3.79595e-05
68 *315:10 *4611:RESET_B 5.72916e-05
69 *451:8 *4728:A 0
70 *462:14 *4728:A 4.50728e-05
71 *468:12 *4728:A 0
72 *470:12 *4728:A 0
73 *471:12 *4728:A 0
74 *484:8 *4728:A 0.000608268
75 *484:12 *4728:A 0.000215639
76 *486:6 *4728:A 4.82863e-05
77 *613:14 *4603:RESET_B 0.000116165
*RES
1 *4729:X *706:6 2.05 
2 *706:6 *4676:RESET_B 8.44 
3 *706:6 *4675:RESET_B 8.725 
4 *4676:RESET_B *4603:RESET_B 14.7475 
5 *4675:RESET_B *4674:RESET_B 8.8375 
6 *4603:RESET_B *706:61 2 
7 *706:61 *4611:RESET_B 7.6175 
8 *706:61 *706:73 12.345 
9 *706:73 *4579:RESET_B 2 
10 *706:73 *4571:RESET_B 7.3625 
11 *4611:RESET_B *4728:A 43.4325 
*END

*D_NET *707 0.00238736
*CONN
*I *3965:C I *D sky130_fd_sc_hd__nand3b_2
*I *5024:X O *D sky130_fd_sc_hd__clkdlybuf4s25_1
*CAP
1 *3965:C 0.000538319
2 *5024:X 0.000538319
3 *3965:C *4775:A 5.94288e-05
4 *3965:C *718:8 0.000622854
5 *3965:C *736:6 0.0001249
6 *3965:B *3965:C 0.000113372
7 *3966:B *3965:C 0
8 *5022:A *3965:C 0
9 *5024:A *3965:C 0.000106634
10 *5025:A *3965:C 9.70988e-05
11 *248:47 *3965:C 8.8266e-05
12 *627:118 *3965:C 5.05437e-05
13 *695:23 *3965:C 4.76263e-05
*RES
1 *5024:X *3965:C 20.67 
*END

*D_NET *708 0.00245465
*CONN
*I *5040:A I *D sky130_fd_sc_hd__clkbuf_4
*I *4641:RESET_B I *D sky130_fd_sc_hd__dfrtp_2
*I *4730:X O *D sky130_fd_sc_hd__clkdlybuf4s25_1
*CAP
1 *5040:A 0.000241667
2 *4641:RESET_B 0.00014468
3 *4730:X 0.000140822
4 *708:8 0.000527169
5 *4641:RESET_B *4657:RESET_B 0.000378711
6 *5040:A *4397:A1 4.06726e-05
7 *5040:A *4657:RESET_B 2.14129e-05
8 *5040:A *4732:A 0.000296801
9 *708:8 *721:41 0.0001947
10 *4427:A *5040:A 4.80058e-05
11 *4437:B *4641:RESET_B 0.000173191
12 *4437:B *5040:A 0.000137632
13 *560:12 *4641:RESET_B 0
14 *562:10 *5040:A 6.79482e-05
15 *585:37 *4641:RESET_B 4.1235e-05
*RES
1 *4730:X *708:8 5.43 
2 *708:8 *4641:RESET_B 6.6725 
3 *708:8 *5040:A 9.87 
*END

*D_NET *709 0.0066765
*CONN
*I *4649:RESET_B I *D sky130_fd_sc_hd__dfrtp_2
*I *4673:RESET_B I *D sky130_fd_sc_hd__dfrtp_2
*I *4625:RESET_B I *D sky130_fd_sc_hd__dfrtp_2
*I *4624:RESET_B I *D sky130_fd_sc_hd__dfrtp_2
*I *4665:RESET_B I *D sky130_fd_sc_hd__dfrtp_2
*I *4623:RESET_B I *D sky130_fd_sc_hd__dfrtp_2
*I *4633:RESET_B I *D sky130_fd_sc_hd__dfrtp_2
*I *4622:RESET_B I *D sky130_fd_sc_hd__dfrtp_2
*I *4630:RESET_B I *D sky130_fd_sc_hd__dfrtp_2
*I *5040:X O *D sky130_fd_sc_hd__clkbuf_4
*CAP
1 *4649:RESET_B 0.000309134
2 *4673:RESET_B 0.000581838
3 *4625:RESET_B 0.000141395
4 *4624:RESET_B 0.000478117
5 *4665:RESET_B 0.000172871
6 *4623:RESET_B 0
7 *4633:RESET_B 0.000310352
8 *4622:RESET_B 0.00070054
9 *4630:RESET_B 0.000741454
10 *5040:X 0.000311218
11 *709:47 0.000471803
12 *4630:RESET_B *4397:B1 0
13 *4630:RESET_B *4397:B2 8.67113e-05
14 *4630:RESET_B *4732:A 0
15 *4649:RESET_B *4458:A0 0
16 *4649:RESET_B *4466:A0 0.000278117
17 *4665:RESET_B *4474:A0 0
18 *4356:S *4625:RESET_B 0.000143508
19 *4400:B1 *4633:RESET_B 7.35766e-05
20 *4400:B1 *709:47 0.000147068
21 *4422:B *4630:RESET_B 0.000141599
22 *4427:A *4630:RESET_B 0.000178946
23 *4428:A *4630:RESET_B 0.00011272
24 *4440:B *4649:RESET_B 0
25 *4440:B *4665:RESET_B 0
26 *4466:S *4622:RESET_B 6.74079e-05
27 *4466:S *709:47 0
28 *4474:S *4624:RESET_B 0
29 *4474:S *4665:RESET_B 0.000130685
30 *4622:CLK *4622:RESET_B 0.000128278
31 *4622:CLK *709:47 2.40185e-05
32 *4624:D *4625:RESET_B 0
33 *4906:A *4633:RESET_B 0.000177142
34 *5018:A *4624:RESET_B 4.91189e-05
35 *550:8 *4630:RESET_B 0.00011852
36 *555:12 *4630:RESET_B 9.24825e-05
37 *575:22 *4630:RESET_B 1.0063e-05
38 *585:10 *4673:RESET_B 8.92513e-05
39 *602:6 *4649:RESET_B 0.000116508
40 *615:16 *4622:RESET_B 0.000147386
41 *617:91 *4625:RESET_B 3.24046e-05
42 *617:91 *4673:RESET_B 0.000112266
*RES
1 *5040:X *4630:RESET_B 13.2425 
2 *4630:RESET_B *4622:RESET_B 10.7275 
3 *4622:RESET_B *709:47 7.1975 
4 *709:47 *4633:RESET_B 6.44 
5 *709:47 *4623:RESET_B 2 
6 *4633:RESET_B *4665:RESET_B 6.655 
7 *4665:RESET_B *4624:RESET_B 5.38 
8 *4624:RESET_B *4625:RESET_B 7.3075 
9 *4624:RESET_B *4673:RESET_B 4.485 
10 *4673:RESET_B *4649:RESET_B 9.5725 
*END

*D_NET *710 0.00266251
*CONN
*I *4626:RESET_B I *D sky130_fd_sc_hd__dfrtp_2
*I *5041:A I *D sky130_fd_sc_hd__clkbuf_4
*I *4731:X O *D sky130_fd_sc_hd__clkdlybuf4s25_1
*CAP
1 *4626:RESET_B 0.000284344
2 *5041:A 4.47026e-05
3 *4731:X 0.000352371
4 *710:16 0.000681418
5 *4626:RESET_B *4393:A1 0
6 *5041:A *4409:A1 0.000122337
7 *5041:A *4627:RESET_B 2.16917e-05
8 *710:16 *4409:A1 8.23457e-05
9 *710:16 *4627:RESET_B 0
10 *710:16 *4731:A 4.99619e-05
11 *4401:A *710:16 0
12 *4402:S *4626:RESET_B 7.09999e-05
13 *4402:S *5041:A 2.59981e-05
14 *4627:D *710:16 0
15 *4634:D *4626:RESET_B 6.74079e-05
16 *4907:A *4626:RESET_B 9.67972e-05
17 *262:60 *710:16 0
18 *262:64 *5041:A 8.65905e-05
19 *579:42 *710:16 0
20 *628:38 *4626:RESET_B 0.000103592
21 *628:38 *5041:A 5.16348e-05
22 *628:38 *710:16 0.000220445
23 *628:73 *4626:RESET_B 0.000183745
24 *628:81 *4626:RESET_B 0.000116127
*RES
1 *4731:X *710:16 13.03 
2 *710:16 *5041:A 5.355 
3 *710:16 *4626:RESET_B 8.6675 
*END

*D_NET *711 0.0103507
*CONN
*I *4621:RESET_B I *D sky130_fd_sc_hd__dfrtp_2
*I *4620:RESET_B I *D sky130_fd_sc_hd__dfrtp_2
*I *4683:RESET_B I *D sky130_fd_sc_hd__dfrtp_2
*I *4681:RESET_B I *D sky130_fd_sc_hd__dfrtp_2
*I *4677:SET_B I *D sky130_fd_sc_hd__dfstp_2
*I *4619:RESET_B I *D sky130_fd_sc_hd__dfrtp_2
*I *4618:RESET_B I *D sky130_fd_sc_hd__dfrtp_2
*I *4680:RESET_B I *D sky130_fd_sc_hd__dfrtp_2
*I *4627:RESET_B I *D sky130_fd_sc_hd__dfrtp_2
*I *5041:X O *D sky130_fd_sc_hd__clkbuf_4
*CAP
1 *4621:RESET_B 0.000153924
2 *4620:RESET_B 0.000757626
3 *4683:RESET_B 8.84332e-05
4 *4681:RESET_B 5.83987e-05
5 *4677:SET_B 1.09362e-05
6 *4619:RESET_B 0.00081989
7 *4618:RESET_B 0.000281843
8 *4680:RESET_B 0.000758085
9 *4627:RESET_B 0.00101452
10 *5041:X 0.000507344
11 *711:89 0.000344782
12 *711:79 0.000465982
13 *711:70 0.000504219
14 *4618:RESET_B *980:54 5.30478e-05
15 *4619:RESET_B *3979:B 0
16 *4621:RESET_B *4227:A1 7.89767e-05
17 *4627:RESET_B *4409:A1 3.23663e-05
18 *4680:RESET_B *3968:A 4.82863e-05
19 *4680:RESET_B *3968:B 1.32017e-05
20 *4680:RESET_B *3968:C 4.82919e-05
21 *4680:RESET_B *3976:A1 9.90606e-05
22 *4680:RESET_B *3980:A1 9.30717e-05
23 *4680:RESET_B *3981:B 4.18603e-06
24 *4680:RESET_B *3983:B 7.15461e-05
25 *4680:RESET_B *5008:A 4.99619e-05
26 *4680:RESET_B *980:54 5.80887e-05
27 *711:79 *3969:B 0
28 *711:79 *3979:B 0
29 *711:79 *3985:A2 0
30 *711:79 *1050:14 0
31 *711:79 *1050:22 0
32 *711:89 *3985:A2 0
33 *711:89 *1050:14 1.67513e-05
34 *3969:C *4618:RESET_B 0.000541113
35 *3976:B1_N *4680:RESET_B 0.000493437
36 *3979:A *4618:RESET_B 0
37 *3980:B1_N *4618:RESET_B 0.000238137
38 *3982:B1_N *4618:RESET_B 0
39 *3985:B1 *711:79 2.03578e-05
40 *4151:A0 *4619:RESET_B 0.000105995
41 *4400:A2 *4621:RESET_B 8.08439e-05
42 *4408:A *4627:RESET_B 0.000247671
43 *4408:B *4627:RESET_B 3.50445e-06
44 *4408:B *4680:RESET_B 0.000135884
45 *4409:B2 *4627:RESET_B 1.33293e-05
46 *4466:S *4680:RESET_B 5.13029e-05
47 *4618:CLK *711:79 0
48 *4618:D *4619:RESET_B 3.39151e-05
49 *4619:D *4620:RESET_B 9.14049e-05
50 *4620:D *4620:RESET_B 3.09233e-05
51 *4627:D *4627:RESET_B 8.53113e-06
52 *4680:D *4618:RESET_B 0.000115464
53 *4681:D *4681:RESET_B 9.08403e-05
54 *4683:D *4683:RESET_B 0
55 *4683:D *711:89 0
56 *4742:A *4620:RESET_B 9.30977e-05
57 *5020:A *4620:RESET_B 0
58 *5041:A *4627:RESET_B 2.16917e-05
59 *252:10 *4677:SET_B 4.24575e-05
60 *252:10 *711:79 2.46089e-05
61 *261:10 *4620:RESET_B 4.40006e-05
62 *261:18 *4620:RESET_B 0.000236012
63 *261:37 *4621:RESET_B 1.4389e-05
64 *262:64 *4627:RESET_B 0.000136553
65 *532:41 *4618:RESET_B 0.000142267
66 *532:41 *711:70 8.07672e-05
67 *572:10 *4680:RESET_B 8.65961e-05
68 *579:27 *4618:RESET_B 0.000156091
69 *579:27 *4680:RESET_B 0.000166561
70 *579:42 *4627:RESET_B 9.24127e-05
71 *580:21 *4620:RESET_B 0.00015737
72 *615:122 *4620:RESET_B 9.6354e-05
73 *627:146 *4677:SET_B 2.40101e-05
74 *710:16 *4627:RESET_B 0
*RES
1 *5041:X *4627:RESET_B 13.9775 
2 *4627:RESET_B *4680:RESET_B 16.54 
3 *4680:RESET_B *4618:RESET_B 12.565 
4 *4618:RESET_B *711:70 2.7425 
5 *711:70 *4619:RESET_B 5.93 
6 *711:70 *711:79 4.185 
7 *711:79 *4677:SET_B 2.3975 
8 *711:79 *711:89 2.91 
9 *711:89 *4681:RESET_B 3.0875 
10 *711:89 *4683:RESET_B 3.38 
11 *4619:RESET_B *4620:RESET_B 16.54 
12 *4620:RESET_B *4621:RESET_B 7.0675 
*END

*D_NET *712 0.00504751
*CONN
*I *4678:RESET_B I *D sky130_fd_sc_hd__dfrtp_2
*I *4679:RESET_B I *D sky130_fd_sc_hd__dfrtp_2
*I *4682:RESET_B I *D sky130_fd_sc_hd__dfrtp_2
*I *4629:RESET_B I *D sky130_fd_sc_hd__dfrtp_2
*I *4637:RESET_B I *D sky130_fd_sc_hd__dfrtp_2
*I *4732:X O *D sky130_fd_sc_hd__clkdlybuf4s25_1
*CAP
1 *4678:RESET_B 6.89152e-05
2 *4679:RESET_B 0
3 *4682:RESET_B 0.000532555
4 *4629:RESET_B 3.82227e-05
5 *4637:RESET_B 0.00100637
6 *4732:X 4.07755e-05
7 *712:51 0.000115349
8 *712:6 0.000599245
9 *4678:RESET_B *3968:A 0.000162311
10 *4678:RESET_B *1051:25 6.38291e-05
11 *4682:RESET_B *3968:A 8.68724e-05
12 *4682:RESET_B *3968:B 0.000219751
13 *4682:RESET_B *3968:C 0.000229897
14 *4682:RESET_B *3981:B 0.000202095
15 *4682:RESET_B *4420:A2 0.000231025
16 *712:51 *3968:A 0.000140905
17 *3976:A2 *712:51 3.05295e-05
18 *3984:A2 *4678:RESET_B 0.000121094
19 *3984:A2 *712:51 4.94404e-05
20 *4411:A *4629:RESET_B 0.000139238
21 *4424:B1_N *4637:RESET_B 0
22 *4458:S *4637:RESET_B 0.000250378
23 *4458:S *4682:RESET_B 0
24 *262:28 *4682:RESET_B 0.000194166
25 *262:47 *4637:RESET_B 2.40101e-05
26 *541:8 *4629:RESET_B 0.000139238
27 *615:116 *4637:RESET_B 0.000361299
*RES
1 *4732:X *712:6 2.05 
2 *712:6 *4637:RESET_B 13.1575 
3 *712:6 *4629:RESET_B 5.635 
4 *4637:RESET_B *4682:RESET_B 17.0875 
5 *4682:RESET_B *712:51 3.635 
6 *712:51 *4679:RESET_B 2 
7 *712:51 *4678:RESET_B 4.655 
*END

*D_NET *713 0.00105882
*CONN
*I *5042:A I *D sky130_fd_sc_hd__clkbuf_4
*I *4655:RESET_B I *D sky130_fd_sc_hd__dfrtp_2
*I *4733:X O *D sky130_fd_sc_hd__clkdlybuf4s25_1
*CAP
1 *5042:A 6.17817e-05
2 *4655:RESET_B 2.20936e-05
3 *4733:X 0.000216959
4 *713:12 0.000300835
5 *713:12 *4464:A0 6.90972e-05
6 *4663:CLK *713:12 1.79174e-05
7 *4672:CLK *4655:RESET_B 2.54715e-05
8 *4672:CLK *5042:A 0.0001076
9 *4840:A *5042:A 0.000122202
10 *4841:A *713:12 5.87002e-05
11 *616:99 *713:12 1.10359e-05
12 *616:177 *713:12 4.51265e-05
*RES
1 *4733:X *713:12 9.56 
2 *713:12 *4655:RESET_B 0.3975 
3 *713:12 *5042:A 3.43 
*END

*D_NET *714 0.0107364
*CONN
*I *4654:RESET_B I *D sky130_fd_sc_hd__dfrtp_2
*I *4638:RESET_B I *D sky130_fd_sc_hd__dfrtp_2
*I *4646:RESET_B I *D sky130_fd_sc_hd__dfrtp_2
*I *4631:RESET_B I *D sky130_fd_sc_hd__dfrtp_2
*I *4639:RESET_B I *D sky130_fd_sc_hd__dfrtp_2
*I *4647:RESET_B I *D sky130_fd_sc_hd__dfrtp_2
*I *4632:RESET_B I *D sky130_fd_sc_hd__dfrtp_2
*I *4648:RESET_B I *D sky130_fd_sc_hd__dfrtp_2
*I *4640:RESET_B I *D sky130_fd_sc_hd__dfrtp_2
*I *5042:X O *D sky130_fd_sc_hd__clkbuf_4
*CAP
1 *4654:RESET_B 0.000355383
2 *4638:RESET_B 0.000255993
3 *4646:RESET_B 0.000355383
4 *4631:RESET_B 0.000722101
5 *4639:RESET_B 0.000529169
6 *4647:RESET_B 0
7 *4632:RESET_B 0.000587004
8 *4648:RESET_B 1.36575e-05
9 *4640:RESET_B 0.000123774
10 *5042:X 0.000710117
11 *714:76 0.000337739
12 *714:62 0.00106861
13 *714:36 0.000387699
14 *714:14 0.000275211
15 *714:10 0.000876802
16 *714:8 0.000985429
17 *4631:RESET_B *4447:A1 5.83121e-06
18 *4632:RESET_B *4438:A1 0.000353831
19 *4638:RESET_B *777:8 0.00024514
20 *4654:RESET_B *4654:D 4.82919e-05
21 *714:8 *4399:A1 0.00025935
22 *714:76 *4447:A0 7.23533e-05
23 *714:76 *777:8 3.09233e-05
24 *4438:A0 *4632:RESET_B 0.000163204
25 *4442:S *4632:RESET_B 1.60203e-05
26 *4449:S *714:14 0.000101325
27 *4450:S *4632:RESET_B 0.000165657
28 *4457:S *714:10 0
29 *4457:S *714:14 0
30 *4631:D *4631:RESET_B 0.000105124
31 *4646:D *4631:RESET_B 2.75229e-05
32 *4656:D *714:14 0
33 *4672:CLK *714:8 0.000200843
34 *4695:A *714:62 0.000103956
35 *4695:A *714:76 0
36 *4828:A *4632:RESET_B 6.97202e-05
37 *4862:A *714:10 0
38 *4881:A *4639:RESET_B 9.03002e-05
39 *5006:A *4632:RESET_B 4.4133e-05
40 *259:56 *4638:RESET_B 0
41 *259:56 *714:62 0
42 *259:56 *714:76 0
43 *259:58 *4639:RESET_B 0.000127441
44 *259:58 *714:10 6.30024e-05
45 *259:58 *714:36 0.000105949
46 *259:58 *714:62 0
47 *259:60 *714:10 8.53255e-05
48 *259:60 *714:14 3.9442e-05
49 *263:61 *4639:RESET_B 7.10475e-05
50 *601:12 *4640:RESET_B 4.99619e-05
51 *601:12 *4648:RESET_B 7.07794e-05
52 *615:66 *4654:RESET_B 8.51586e-05
53 *615:77 *4654:RESET_B 0.000128672
54 *616:97 *714:8 1.85837e-05
55 *616:128 *4640:RESET_B 0.000156398
56 *616:128 *4648:RESET_B 4.70477e-05
57 *616:128 *714:14 0
*RES
1 *5042:X *714:8 12.675 
2 *714:8 *714:10 3.165 
3 *714:10 *714:14 4.91 
4 *714:14 *4640:RESET_B 2.4675 
5 *714:14 *4648:RESET_B 0.7425 
6 *714:10 *4632:RESET_B 12.7475 
7 *714:8 *714:36 2.4 
8 *714:36 *4647:RESET_B 2 
9 *714:36 *4639:RESET_B 7.3775 
10 *4639:RESET_B *714:62 7.175 
11 *714:62 *4631:RESET_B 12.8675 
12 *714:62 *714:76 1.635 
13 *714:76 *4646:RESET_B 2 
14 *714:76 *4638:RESET_B 6.6875 
15 *4646:RESET_B *4654:RESET_B 5.415 
*END

*D_NET *715 0.00669412
*CONN
*I *4670:RESET_B I *D sky130_fd_sc_hd__dfrtp_2
*I *4662:RESET_B I *D sky130_fd_sc_hd__dfrtp_2
*I *4671:RESET_B I *D sky130_fd_sc_hd__dfrtp_2
*I *4663:RESET_B I *D sky130_fd_sc_hd__dfrtp_2
*I *4672:RESET_B I *D sky130_fd_sc_hd__dfrtp_2
*I *4664:RESET_B I *D sky130_fd_sc_hd__dfrtp_2
*I *4656:RESET_B I *D sky130_fd_sc_hd__dfrtp_2
*I *4734:X O *D sky130_fd_sc_hd__clkdlybuf4s25_1
*CAP
1 *4670:RESET_B 0.000164369
2 *4662:RESET_B 0.000145852
3 *4671:RESET_B 0
4 *4663:RESET_B 7.50936e-05
5 *4672:RESET_B 0
6 *4664:RESET_B 0.000496018
7 *4656:RESET_B 4.83795e-05
8 *4734:X 0.000411334
9 *715:62 0.000367076
10 *715:55 9.26834e-05
11 *715:45 0.000232806
12 *715:38 0.000430022
13 *715:10 0.000647594
14 *4656:RESET_B *722:32 3.63611e-05
15 *4656:RESET_B *806:10 4.82863e-05
16 *4662:RESET_B *4670:D 0.000196364
17 *4662:RESET_B *1124:12 4.20162e-05
18 *4663:RESET_B *4472:A0 3.57349e-05
19 *4663:RESET_B *1125:14 0.000113537
20 *4664:RESET_B *4465:A0 0.000100162
21 *4664:RESET_B *4648:D 0
22 *4664:RESET_B *806:10 0.000250609
23 *4670:RESET_B *4471:A1 8.45475e-05
24 *4670:RESET_B *5068:A 0
25 *4670:RESET_B *721:100 0.000175445
26 *715:10 *4457:A0 0
27 *715:10 *4648:D 0
28 *715:10 *4738:A 0.000113282
29 *715:38 *4472:A1 0.000148688
30 *715:38 *4473:A1 9.16941e-05
31 *715:38 *4671:D 9.77561e-05
32 *715:38 *1126:12 0.000138041
33 *715:45 *4471:A1 0.000157543
34 *715:45 *4472:A1 0.000194748
35 *715:45 *4671:D 6.06356e-05
36 *715:45 *721:100 1.11025e-05
37 *715:55 *4471:A1 0.000104389
38 *715:55 *4472:A0 9.24881e-05
39 *715:55 *4472:A1 1.0397e-05
40 *715:62 *4471:A1 0.000243947
41 *715:62 *4472:A0 0.000231659
42 uio_out[4] *715:10 4.99619e-05
43 uio_out[4] *715:38 8.11114e-05
44 *4863:A *4656:RESET_B 5.83121e-06
45 *4864:A *4664:RESET_B 0.000210839
46 *4901:A *4662:RESET_B 3.18568e-05
47 *5029:A *715:10 0.000356395
48 *258:70 *4670:RESET_B 5.93844e-05
49 *258:70 *715:62 8.08153e-06
*RES
1 *4734:X *715:10 11.37 
2 *715:10 *4656:RESET_B 3.0875 
3 *715:10 *4664:RESET_B 6.9275 
4 *4664:RESET_B *715:38 8.9975 
5 *715:38 *4672:RESET_B 2 
6 *715:38 *715:45 4.185 
7 *715:45 *4663:RESET_B 3.4325 
8 *715:45 *715:55 1.38 
9 *715:55 *4671:RESET_B 2 
10 *715:55 *715:62 2.91 
11 *715:62 *4662:RESET_B 5.1575 
12 *715:62 *4670:RESET_B 6.185 
*END

*D_NET *716 0.00363483
*CONN
*I *5043:A I *D sky130_fd_sc_hd__clkbuf_4
*I *4668:RESET_B I *D sky130_fd_sc_hd__dfrtp_2
*I *4735:X O *D sky130_fd_sc_hd__clkdlybuf4s25_1
*CAP
1 *5043:A 0.000391201
2 *4668:RESET_B 0
3 *4735:X 0.000480073
4 *716:10 0.000871275
5 *5043:A *4666:RESET_B 0
6 *5043:A *717:10 5.05521e-05
7 *5043:A *721:100 0
8 *5043:A *769:8 0
9 *5043:A *1122:12 3.86529e-05
10 *716:10 *4661:D 0
11 *716:10 *4669:RESET_B 0
12 *716:10 *5068:A 0.000290591
13 *716:10 *721:100 0
14 *4926:A *5043:A 0.000116165
15 *258:53 *5043:A 0.00034224
16 *258:53 *716:10 0.000154481
17 *258:59 *716:10 0.000899595
*RES
1 *4735:X *716:10 15.975 
2 *716:10 *4668:RESET_B 2 
3 *716:10 *5043:A 11.91 
*END

*D_NET *717 0.00781664
*CONN
*I *4669:RESET_B I *D sky130_fd_sc_hd__dfrtp_2
*I *4650:RESET_B I *D sky130_fd_sc_hd__dfrtp_2
*I *4658:RESET_B I *D sky130_fd_sc_hd__dfrtp_2
*I *4659:RESET_B I *D sky130_fd_sc_hd__dfrtp_2
*I *4651:RESET_B I *D sky130_fd_sc_hd__dfrtp_2
*I *4652:RESET_B I *D sky130_fd_sc_hd__dfrtp_2
*I *4653:RESET_B I *D sky130_fd_sc_hd__dfrtp_2
*I *4660:RESET_B I *D sky130_fd_sc_hd__dfrtp_2
*I *4661:RESET_B I *D sky130_fd_sc_hd__dfrtp_2
*I *5043:X O *D sky130_fd_sc_hd__clkbuf_4
*CAP
1 *4669:RESET_B 0.000109263
2 *4650:RESET_B 0.000258571
3 *4658:RESET_B 0
4 *4659:RESET_B 0
5 *4651:RESET_B 0.000121251
6 *4652:RESET_B 0
7 *4653:RESET_B 3.30533e-05
8 *4660:RESET_B 5.07364e-05
9 *4661:RESET_B 0.000392083
10 *5043:X 0.000489413
11 *717:73 0.00074646
12 *717:64 0.000626745
13 *717:54 0.000600011
14 *717:47 0.000542123
15 *717:33 0.000367586
16 *717:10 0.000690657
17 *4650:RESET_B *4658:D 4.50017e-05
18 *4650:RESET_B *5010:A 2.40101e-05
19 *4651:RESET_B *5011:A 2.86869e-05
20 *4660:RESET_B *4644:RESET_B 1.23706e-05
21 *4661:RESET_B *4660:D 0
22 *4661:RESET_B *4668:D 0.000129283
23 *4661:RESET_B *721:100 0
24 *4669:RESET_B *4470:A0 0.000154801
25 *4669:RESET_B *4661:D 0.000210144
26 *4669:RESET_B *721:100 0.000254637
27 *717:10 *4660:D 0
28 *717:10 *4668:D 0.000332107
29 *717:33 *4470:A0 0.000118178
30 *717:47 *4395:A1 0
31 *717:47 *4644:RESET_B 0
32 *717:54 *4395:A1 0
33 *717:64 *4460:A1 0
34 *717:64 *5011:A 0
35 *717:64 *757:10 7.81954e-05
36 *717:73 *4460:A0 3.4222e-05
37 *717:73 *4460:A1 0
38 *717:73 *4658:D 8.53113e-06
39 *717:73 *757:10 3.05295e-05
40 *4451:S *717:73 0
41 *4652:D *717:47 3.83902e-05
42 *4658:CLK *717:73 0
43 *4660:CLK *4660:RESET_B 0
44 *4661:CLK *4669:RESET_B 4.41363e-05
45 *4812:A *717:10 0
46 *4820:A *4651:RESET_B 7.35729e-05
47 *4821:A *717:73 0.00011852
48 *4826:A *4669:RESET_B 2.91561e-06
49 *4826:A *717:33 0.000133958
50 *4830:A *717:73 7.96996e-05
51 *4831:A *4650:RESET_B 0
52 *4831:A *717:73 0
53 *4839:A *717:73 0
54 *4857:A *717:47 0.000163019
55 *5043:A *717:10 5.05521e-05
56 *258:39 *717:10 0.000161529
57 *258:45 *717:10 0
58 *260:68 *717:73 0
59 *260:70 *717:54 0
60 *260:70 *717:64 0
61 *260:70 *717:73 0
62 *260:72 *717:47 8.92379e-05
63 *260:72 *717:54 0
64 *263:43 *717:54 0
65 *263:43 *717:64 0
66 *629:143 *4660:RESET_B 0
67 *629:156 *4661:RESET_B 0.000231557
68 *629:158 *4661:RESET_B 0.000140905
69 *716:10 *4669:RESET_B 0
*RES
1 *5043:X *717:10 12.39 
2 *717:10 *4661:RESET_B 6.44 
3 *717:10 *4660:RESET_B 2.7575 
4 *4661:RESET_B *717:33 2.8125 
5 *717:33 *4653:RESET_B 0.3975 
6 *717:33 *717:47 6.74 
7 *717:47 *4652:RESET_B 2 
8 *717:47 *717:54 5.46 
9 *717:54 *4651:RESET_B 4.1225 
10 *717:54 *717:64 2.655 
11 *717:64 *4659:RESET_B 2 
12 *717:64 *717:73 8.97 
13 *717:73 *4658:RESET_B 2 
14 *717:73 *4650:RESET_B 5.8475 
15 *4661:RESET_B *4669:RESET_B 8.3425 
*END

*D_NET *718 0.00317895
*CONN
*I *3989:B I *D sky130_fd_sc_hd__and4b_2
*I *4027:B I *D sky130_fd_sc_hd__nand4_2
*I *3965:A_N I *D sky130_fd_sc_hd__nand3b_2
*I *5025:X O *D sky130_fd_sc_hd__clkdlybuf4s25_1
*CAP
1 *3989:B 2.64408e-05
2 *4027:B 6.43002e-05
3 *3965:A_N 0.00019799
4 *5025:X 0.000592259
5 *718:10 0.00032166
6 *718:8 0.000678069
7 *4027:B *1027:12 1.61831e-05
8 *718:8 *4027:D 0.0001249
9 *718:8 *736:6 0.00010293
10 *3965:B *3965:A_N 0
11 *3965:C *718:8 0.000622854
12 *3989:C *3965:A_N 2.82887e-05
13 *3989:C *3989:B 4.38051e-05
14 *3989:C *4027:B 4.66108e-05
15 *3989:C *718:10 0.000109995
16 *5022:A *3965:A_N 0
17 *5022:A *3989:B 0
18 *5022:A *718:10 0
19 *248:47 *3965:A_N 7.60965e-05
20 *248:68 *3965:A_N 0
21 *627:118 *3965:A_N 0.00012657
22 *695:23 *3965:A_N 0
*RES
1 *5025:X *718:8 11.985 
2 *718:8 *718:10 1.38 
3 *718:10 *3965:A_N 7.335 
4 *718:10 *4027:B 4.755 
5 *718:8 *3989:B 4.215 
*END

*D_NET *719 0.00476059
*CONN
*I *4667:RESET_B I *D sky130_fd_sc_hd__dfrtp_2
*I *5044:A I *D sky130_fd_sc_hd__clkbuf_4
*I *4735:A I *D sky130_fd_sc_hd__clkdlybuf4s25_1
*I *4736:X O *D sky130_fd_sc_hd__clkdlybuf4s25_1
*CAP
1 *4667:RESET_B 0.000525776
2 *5044:A 6.05382e-05
3 *4735:A 0.000505641
4 *4736:X 4.78064e-05
5 *719:14 0.00066236
6 *719:8 0.000669763
7 *4667:RESET_B *4468:A1 0
8 *4667:RESET_B *5067:A 8.08153e-06
9 *4735:A *4470:A1 9.57632e-05
10 *4735:A *4914:A 0.000163019
11 *4735:A *5069:A 0.000182276
12 *4735:A *769:8 7.89689e-05
13 *4735:A *780:12 0.000178504
14 *719:14 *769:8 4.37257e-05
15 uo_out[2] *4667:RESET_B 0.000584838
16 uo_out[2] *719:14 1.7635e-05
17 uo_out[3] *4735:A 0.00093589
18 *258:53 *4735:A 0
19 *258:59 *4735:A 0
*RES
1 *4736:X *719:8 4.05 
2 *719:8 *719:14 1.935 
3 *719:14 *4735:A 18.69 
4 *719:14 *5044:A 4.395 
5 *719:8 *4667:RESET_B 12.6425 
*END

*D_NET *720 0.00947044
*CONN
*I *4634:RESET_B I *D sky130_fd_sc_hd__dfrtp_2
*I *4642:RESET_B I *D sky130_fd_sc_hd__dfrtp_2
*I *4635:RESET_B I *D sky130_fd_sc_hd__dfrtp_2
*I *4628:RESET_B I *D sky130_fd_sc_hd__dfrtp_2
*I *4643:RESET_B I *D sky130_fd_sc_hd__dfrtp_2
*I *4645:RESET_B I *D sky130_fd_sc_hd__dfrtp_2
*I *4636:RESET_B I *D sky130_fd_sc_hd__dfrtp_2
*I *4644:RESET_B I *D sky130_fd_sc_hd__dfrtp_2
*I *5044:X O *D sky130_fd_sc_hd__clkbuf_4
*CAP
1 *4634:RESET_B 0.000257374
2 *4642:RESET_B 0
3 *4635:RESET_B 5.10178e-05
4 *4628:RESET_B 0.000391403
5 *4643:RESET_B 0.00104774
6 *4645:RESET_B 0.000202518
7 *4636:RESET_B 0.000711219
8 *4644:RESET_B 0.00153454
9 *5044:X 0.00121472
10 *720:101 0.000388031
11 *720:91 0.000489902
12 *720:41 0.00094203
13 *4628:RESET_B *4395:A1 2.86265e-06
14 *4628:RESET_B *836:73 0
15 *4634:RESET_B *817:8 8.73389e-06
16 *4636:RESET_B *4395:A1 9.71251e-06
17 *4643:RESET_B *778:12 5.39718e-05
18 *4644:RESET_B *4395:A1 3.67779e-05
19 *720:101 *4444:A0 7.42255e-05
20 *720:101 *4731:A 0.000273702
21 *4443:S *4634:RESET_B 0.000135312
22 *4443:S *720:101 1.71013e-05
23 *4451:S *4643:RESET_B 0
24 *4453:S *4644:RESET_B 2.30975e-05
25 *4636:CLK *4628:RESET_B 0.000135634
26 *4636:CLK *4636:RESET_B 0.000114789
27 *4643:D *4643:RESET_B 0
28 *4643:D *720:91 4.82919e-05
29 *4651:CLK *4643:RESET_B 0
30 *4651:D *4643:RESET_B 0
31 *4652:D *4644:RESET_B 6.71882e-05
32 *4653:CLK *4645:RESET_B 1.52184e-05
33 *4653:D *4645:RESET_B 7.35813e-05
34 *4660:RESET_B *4644:RESET_B 1.23706e-05
35 *4812:A *4644:RESET_B 2.75229e-05
36 *4857:A *4644:RESET_B 0
37 *4865:A *720:101 0.000120186
38 *4873:A *4634:RESET_B 4.80285e-05
39 *5002:A *4628:RESET_B 0.000151797
40 *259:35 *720:101 3.31204e-05
41 *259:48 *4643:RESET_B 0
42 *263:43 *4643:RESET_B 0
43 *263:43 *4644:RESET_B 0
44 *263:45 *4643:RESET_B 0
45 *263:45 *4644:RESET_B 0
46 *263:45 *4645:RESET_B 0
47 *628:25 *4635:RESET_B 4.1235e-05
48 *628:25 *720:91 6.71882e-05
49 *629:33 *4643:RESET_B 0.000101317
50 *629:35 *4643:RESET_B 2.42236e-05
51 *629:35 *4645:RESET_B 5.02217e-05
52 *629:50 *4645:RESET_B 0.000226276
53 *629:118 *4636:RESET_B 0.000127873
54 *629:143 *4644:RESET_B 3.73477e-05
55 *629:156 *4644:RESET_B 8.10355e-05
56 *717:47 *4644:RESET_B 0
*RES
1 *5044:X *4644:RESET_B 20.0675 
2 *4644:RESET_B *4636:RESET_B 5.415 
3 *4644:RESET_B *720:41 2 
4 *720:41 *4645:RESET_B 6.1925 
5 *720:41 *4643:RESET_B 14.345 
6 *4636:RESET_B *4628:RESET_B 9.7825 
7 *4643:RESET_B *720:91 4.7775 
8 *720:91 *4635:RESET_B 0.7425 
9 *720:91 *720:101 6.185 
10 *720:101 *4642:RESET_B 2 
11 *720:101 *4634:RESET_B 6.6875 
*END

*D_NET *721 0.0276388
*CONN
*I *4731:A I *D sky130_fd_sc_hd__clkdlybuf4s25_1
*I *4736:A I *D sky130_fd_sc_hd__clkdlybuf4s25_1
*I *4666:RESET_B I *D sky130_fd_sc_hd__dfrtp_2
*I *4733:A I *D sky130_fd_sc_hd__clkdlybuf4s25_1
*I *4730:A I *D sky130_fd_sc_hd__clkdlybuf4s25_1
*I *4732:A I *D sky130_fd_sc_hd__clkdlybuf4s25_1
*I *4657:RESET_B I *D sky130_fd_sc_hd__dfrtp_2
*I *4734:A I *D sky130_fd_sc_hd__clkdlybuf4s25_1
*I *4737:X O *D sky130_fd_sc_hd__clkdlybuf4s25_1
*CAP
1 *4731:A 0.00189291
2 *4736:A 3.56347e-05
3 *4666:RESET_B 0.0023396
4 *4733:A 0.000117767
5 *4730:A 0
6 *4732:A 0.00111207
7 *4657:RESET_B 0.000727492
8 *4734:A 0.000188719
9 *4737:X 3.98087e-05
10 *721:100 0.00159058
11 *721:41 0.00215227
12 *721:35 0.00134587
13 *721:27 0.00163132
14 *721:23 0.00206333
15 *721:8 0.000703222
16 *4666:RESET_B *4468:A1 0.000142798
17 *4666:RESET_B *4469:A1 0.00011655
18 *4666:RESET_B *4667:D 0
19 *4666:RESET_B *4668:D 0
20 *4666:RESET_B *5067:A 0
21 *4666:RESET_B *769:8 0
22 *4731:A *4409:A1 0.000120655
23 *4731:A *4444:A0 3.38982e-05
24 *4731:A *808:6 0.000316421
25 *4732:A *4396:B1 5.42473e-05
26 *4732:A *4397:B1 0
27 *4732:A *4397:B2 0.000117374
28 *4732:A *980:103 0
29 *4732:A *980:109 0
30 *4734:A *4932:A 4.93919e-05
31 *721:8 *4932:A 2.49909e-05
32 *721:23 *4471:A1 0.000228244
33 *721:23 *4472:A1 4.71162e-05
34 *721:23 *4473:A1 0
35 *721:23 *4932:A 0.000310644
36 *721:23 *814:10 0.000282118
37 *721:27 *4397:A1 0.000197862
38 *721:27 *4456:A1 7.58267e-05
39 *721:27 *779:6 0.000178736
40 *721:35 *4399:A1 0.000133739
41 *721:35 *4399:B2 0.000198934
42 *721:35 *4448:A1 0.000317835
43 *721:35 *4456:A0 4.61909e-05
44 *721:100 *4471:A1 0.000591723
45 *721:100 *4661:D 4.84393e-05
46 *721:100 *4668:D 0
47 *721:100 *4669:D 0.00011686
48 *721:100 *4670:D 0.000114438
49 *721:100 *4671:D 0.000283968
50 *721:100 *5068:A 0
51 *721:100 *1122:12 0
52 uio_oe[6] *721:23 5.83121e-06
53 uio_out[4] *4734:A 0
54 uo_out[4] *721:100 0.000106344
55 *4396:B2 *4732:A 0
56 *4406:C_N *4731:A 1.85674e-05
57 *4411:B *4732:A 0.000141177
58 *4423:B *4732:A 0
59 *4427:B *4732:A 0.000346212
60 *4430:A2 *4732:A 0.000111316
61 *4439:B1_N *4732:A 5.20249e-05
62 *4456:S *721:27 0.000197862
63 *4457:S *721:35 0.00032329
64 *4467:S *4666:RESET_B 0.000234115
65 *4473:S *721:23 0.000376371
66 *4623:CLK *4732:A 0.000149178
67 *4630:RESET_B *4732:A 0
68 *4631:D *4732:A 0
69 *4641:CLK *4657:RESET_B 0.000109002
70 *4641:RESET_B *4657:RESET_B 0.000378711
71 *4649:CLK *4732:A 1.98909e-05
72 *4651:CLK *4731:A 0
73 *4661:RESET_B *721:100 0
74 *4669:RESET_B *721:100 0.000254637
75 *4670:RESET_B *721:100 0.000175445
76 *4826:A *721:100 9.79559e-05
77 *4840:A *721:27 2.49909e-05
78 *4841:A *721:27 8.41384e-05
79 *4901:A *721:23 9.29427e-05
80 *4926:A *4666:RESET_B 4.61744e-05
81 *4926:A *4736:A 2.11084e-05
82 *5006:A *721:35 0.000227055
83 *5029:A *4734:A 0
84 *5040:A *4657:RESET_B 2.14129e-05
85 *5040:A *4732:A 0.000296801
86 *5043:A *4666:RESET_B 0
87 *5043:A *721:100 0
88 *258:53 *4736:A 0.000114912
89 *258:53 *721:100 0.000163204
90 *258:116 *4666:RESET_B 0
91 *259:35 *4731:A 0.000383705
92 *263:39 *4731:A 0.000950539
93 *541:8 *4732:A 0
94 *550:8 *4732:A 0
95 *559:10 *4657:RESET_B 0.000381337
96 *559:10 *4732:A 0.000152867
97 *573:21 *4732:A 2.84137e-05
98 *576:10 *4732:A 0.00013126
99 *579:42 *4731:A 1.70733e-05
100 *585:37 *4657:RESET_B 0.000125651
101 *628:110 *4731:A 0.000200878
102 *628:125 *4731:A 0.000457356
103 *629:158 *721:100 0
104 *708:8 *721:41 0.0001947
105 *710:16 *4731:A 4.99619e-05
106 *715:45 *721:100 1.11025e-05
107 *716:10 *721:100 0
108 *720:101 *4731:A 0.000273702
*RES
1 *4737:X *721:8 4.05 
2 *721:8 *4734:A 6.51 
3 *721:8 *721:23 14.57 
4 *721:23 *721:27 11.075 
5 *721:27 *721:35 21.395 
6 *721:35 *721:41 6.95 
7 *721:41 *4657:RESET_B 14.5475 
8 *721:41 *4732:A 28.215 
9 *721:35 *4730:A 1.6 
10 *721:27 *4733:A 5.49 
11 *721:23 *721:100 30.115 
12 *721:100 *4666:RESET_B 14.815 
13 *721:100 *4736:A 2.74 
14 *4666:RESET_B *4731:A 37.5875 
*END

*D_NET *722 0.0399319
*CONN
*I *4737:A I *D sky130_fd_sc_hd__clkdlybuf4s25_1
*I *4729:A I *D sky130_fd_sc_hd__clkdlybuf4s25_1
*I *4789:A I *D sky130_fd_sc_hd__clkdlybuf4s25_1
*I *4785:A I *D sky130_fd_sc_hd__clkdlybuf4s25_1
*I *4726:A I *D sky130_fd_sc_hd__clkdlybuf4s25_1
*I *4738:X O *D sky130_fd_sc_hd__clkdlybuf4s25_1
*CAP
1 *4737:A 2.10016e-05
2 *4729:A 0.00138314
3 *4789:A 0
4 *4785:A 0.00230736
5 *4726:A 0
6 *4738:X 0.00013233
7 *722:77 0.00473696
8 *722:52 0.00472442
9 *722:42 0.00646468
10 *722:32 0.00517598
11 *722:12 0.0025426
12 *4729:A *4179:B 7.26629e-05
13 *4729:A *880:37 0.000235656
14 *4729:A *914:40 0.00014155
15 *4729:A *914:57 4.49328e-05
16 *4729:A *936:16 0.000163019
17 *4729:A *936:33 0.000179008
18 *4729:A *936:37 0
19 *4729:A *936:52 0
20 *4729:A *980:12 0.000347029
21 *4785:A *4500:RESET_B 0.000217975
22 *4785:A *4529:RESET_B 7.94826e-05
23 *4785:A *4532:SET_B 0.000341194
24 *4785:A *985:66 0.000543305
25 *722:32 *4449:A0 3.93106e-05
26 *722:32 *4473:A1 1.32843e-05
27 *722:32 *4932:A 1.83847e-05
28 *722:32 *727:6 0.000163199
29 *722:42 *4356:A1 0.000545085
30 *722:52 *4122:A0 1.30349e-05
31 *722:52 *4185:A1 0.000509612
32 *722:52 *4988:A 0.000114858
33 *722:52 *775:12 0.000159488
34 *722:77 *4074:A0 0.000222951
35 *722:77 *4074:A1 1.19028e-05
36 *722:77 *4098:A0 0.000449803
37 *722:77 *4098:A1 0.000157937
38 *722:77 *4185:A1 7.76814e-05
39 *722:77 *4360:A2 8.26048e-06
40 *722:77 *4360:B1 4.82919e-05
41 *722:77 *4360:B2 3.72916e-05
42 *722:77 *4982:A 2.69217e-05
43 *722:77 *985:24 0.000286268
44 *722:77 *1079:22 6.89821e-05
45 uio_out[5] *722:32 9.66106e-05
46 *4217:B *4729:A 0.000229221
47 *4278:A *722:52 2.75229e-05
48 *4279:B *722:42 4.21973e-05
49 *4279:B *722:52 4.66826e-05
50 *4308:A3 *4729:A 8.72419e-05
51 *4322:A *722:52 0.000193666
52 *4322:B *722:52 0.000124007
53 *4343:B *722:52 0.000489974
54 *4351:A *722:42 5.4003e-05
55 *4354:A_N *722:42 3.00381e-05
56 *4356:A0 *722:42 0.000102024
57 *4356:S *722:42 0.00012657
58 *4361:C1 *722:77 3.1562e-06
59 *4384:A *722:52 0.00011964
60 *4385:B1 *722:52 0.000496782
61 *4440:A *722:42 0.000237301
62 *4442:A0 *722:42 6.47326e-05
63 *4442:S *722:32 0.000665398
64 *4449:A1 *722:32 0.000359062
65 *4449:S *722:32 0.000212071
66 *4458:S *722:42 0.000200615
67 *4478:A *4729:A 0.00010877
68 *4479:B1_N *4729:A 1.19928e-05
69 *4500:CLK *4785:A 0.000243649
70 *4529:CLK *4785:A 8.49205e-05
71 *4577:CLK *722:77 2.78409e-05
72 *4588:D *722:77 6.12118e-05
73 *4603:RESET_B *4729:A 0.000116165
74 *4656:RESET_B *722:32 3.63611e-05
75 *4675:RESET_B *4729:A 7.57202e-05
76 *4696:A *4729:A 0
77 *4696:A *722:42 0
78 *4706:A *4729:A 9.30787e-05
79 *4713:A *722:42 0
80 *4728:A *722:52 1.19928e-05
81 *4863:A *722:32 0.000188727
82 *5029:A *722:12 5.06358e-05
83 *255:61 *4729:A 0.000377295
84 *331:10 *722:52 0.00012657
85 *362:10 *4729:A 0
86 *421:6 *722:52 2.75145e-05
87 *440:12 *722:42 0.000163012
88 *441:12 *722:42 0
89 *450:8 *4729:A 0.000114934
90 *485:10 *722:52 9.09288e-05
91 *493:10 *722:42 8.5841e-05
92 *560:12 *722:32 8.57024e-05
93 *613:14 *4729:A 0.000502299
94 *616:111 *722:32 5.12199e-05
95 *618:108 *722:77 0.00022081
96 *618:110 *722:77 7.5416e-05
97 *618:134 *722:77 1.56428e-05
98 *706:6 *4729:A 4.82863e-05
*RES
1 *4738:X *722:12 7.685 
2 *722:12 *722:32 38.1 
3 *722:32 *722:42 49.84 
4 *722:42 *722:52 44.05 
5 *722:52 *4726:A 1.6 
6 *722:52 *722:77 39.535 
7 *722:77 *4785:A 31.225 
8 *722:77 *4789:A 1.6 
9 *722:42 *4729:A 41.15 
10 *722:12 *4737:A 1.9225 
*END

*D_NET *723 0.00406514
*CONN
*I *3999:B I *D sky130_fd_sc_hd__and3b_2
*I *3990:B I *D sky130_fd_sc_hd__nor3b_4
*I *4018:B I *D sky130_fd_sc_hd__and3_2
*I *4008:A_N I *D sky130_fd_sc_hd__and3b_2
*I *4037:C_N I *D sky130_fd_sc_hd__or3b_2
*I *4017:B I *D sky130_fd_sc_hd__nand2_2
*I *4028:B I *D sky130_fd_sc_hd__or3_2
*I *4046:A I *D sky130_fd_sc_hd__or3b_2
*I *5026:X O *D sky130_fd_sc_hd__clkdlybuf4s25_1
*CAP
1 *3999:B 0
2 *3990:B 1.65033e-05
3 *4018:B 0.000234976
4 *4008:A_N 2.439e-05
5 *4037:C_N 0
6 *4017:B 8.79543e-05
7 *4028:B 6.95952e-05
8 *4046:A 0.000153597
9 *5026:X 5.19675e-05
10 *723:33 0.000319149
11 *723:29 0.000161599
12 *723:16 0.00023577
13 *723:14 0.000182951
14 *723:12 0.000350845
15 *723:10 0.000213214
16 *723:8 0.000209197
17 *4008:A_N *5000:A 8.40269e-05
18 *4008:A_N *1048:16 4.66826e-05
19 *4017:B *725:27 5.53249e-06
20 *4017:B *725:29 8.48925e-05
21 *4017:B *725:31 1.89685e-05
22 *4028:B *4037:B 8.65961e-05
23 *723:10 *725:12 0
24 *723:14 *725:27 0
25 *4008:B *723:12 0
26 *4008:B *723:14 0
27 *4028:C *4028:B 3.00381e-05
28 *4028:C *723:33 4.92062e-05
29 *4030:S *4046:A 8.23457e-05
30 *265:10 *723:8 0
31 *265:10 *723:10 0
32 *266:10 *3990:B 2.49909e-05
33 *266:10 *723:8 0
34 *267:24 *4046:A 5.06048e-05
35 *267:24 *723:16 9.29751e-06
36 *267:30 *4046:A 4.66474e-05
37 *268:10 *4017:B 0.000179613
38 *268:10 *723:16 0
39 *270:131 *3990:B 4.66108e-05
40 *270:131 *4018:B 0.000195515
41 *271:14 *723:8 9.50342e-06
42 *271:14 *723:10 0.000214078
43 *271:14 *723:12 7.11219e-05
44 *271:14 *723:14 0.00013523
45 *271:14 *723:16 0.000134836
46 *271:14 *723:33 4.01778e-05
47 *271:18 *723:33 1.34503e-05
48 *273:10 *4046:A 6.92448e-05
49 *273:10 *723:16 2.42236e-05
*RES
1 *5026:X *723:8 4.47 
2 *723:8 *723:10 2.655 
3 *723:10 *723:12 0.87 
4 *723:12 *723:14 1.635 
5 *723:14 *723:16 1.89 
6 *723:16 *4046:A 6.54 
7 *723:16 *723:29 2 
8 *723:29 *723:33 2.79 
9 *723:33 *4028:B 3.1 
10 *723:33 *4017:B 8.105 
11 *723:29 *4037:C_N 1.6 
12 *723:14 *4008:A_N 4.395 
13 *723:12 *4018:B 6.6825 
14 *723:10 *3990:B 4.05 
15 *723:8 *3999:B 3.6 
*END

*D_NET *724 0.00130171
*CONN
*I *4080:A1 I *D sky130_fd_sc_hd__mux2_1
*I *4072:A0 I *D sky130_fd_sc_hd__mux2_1
*I *4790:X O *D sky130_fd_sc_hd__dlygate4sd3_1
*CAP
1 *4080:A1 3.54914e-05
2 *4072:A0 3.5419e-05
3 *4790:X 0.000223167
4 *724:12 0.000294078
5 *4072:A0 *4072:A1 5.83121e-06
6 *4080:A1 *4072:A1 5.23362e-05
7 *724:12 *4072:A1 1.91597e-05
8 *724:12 *4072:S 4.66108e-05
9 *724:12 *4144:D 5.83121e-06
10 *724:12 *4147:A1 0.00013264
11 *724:12 *982:77 0.000255338
12 *724:12 *1000:24 3.4222e-05
13 *4562:RESET_B *4080:A1 4.30677e-05
14 *4685:RESET_B *4080:A1 0.00011852
*RES
1 *4790:X *724:12 11.105 
2 *724:12 *4072:A0 2.05 
3 *724:12 *4080:A1 6.98 
*END

*D_NET *725 0.00278497
*CONN
*I *3999:A_N I *D sky130_fd_sc_hd__and3b_2
*I *4018:A I *D sky130_fd_sc_hd__and3_2
*I *4017:A I *D sky130_fd_sc_hd__nand2_2
*I *4008:C I *D sky130_fd_sc_hd__and3b_2
*I *4028:A I *D sky130_fd_sc_hd__or3_2
*I *4037:B I *D sky130_fd_sc_hd__or3b_2
*I *4046:C_N I *D sky130_fd_sc_hd__or3b_2
*I *3990:A I *D sky130_fd_sc_hd__nor3b_4
*I *5027:X O *D sky130_fd_sc_hd__clkdlybuf4s25_1
*CAP
1 *3999:A_N 0
2 *4018:A 0
3 *4017:A 0
4 *4008:C 7.4081e-05
5 *4028:A 0
6 *4037:B 5.74715e-05
7 *4046:C_N 0.000107012
8 *3990:A 0
9 *5027:X 9.73191e-06
10 *725:60 7.4081e-05
11 *725:31 0.00019663
12 *725:29 0.000106224
13 *725:27 0.000251103
14 *725:21 0.00025979
15 *725:12 0.000189233
16 *725:6 0.0001162
17 *4008:C *5000:A 0.000106294
18 *4008:C *1048:16 0.000215528
19 *725:6 *4486:A0 4.82863e-05
20 *725:27 *4766:A 0
21 *725:29 *4759:A 6.10392e-05
22 *3999:C *725:6 4.82863e-05
23 *4008:B *725:12 3.59531e-06
24 *4008:B *725:27 6.62605e-05
25 *4017:B *725:27 5.53249e-06
26 *4017:B *725:29 8.48925e-05
27 *4017:B *725:31 1.89685e-05
28 *4018:C *725:21 3.66286e-05
29 *4018:C *725:27 4.82919e-05
30 *4028:B *4037:B 8.65961e-05
31 *4030:S *4046:C_N 2.16917e-05
32 *4055:A *4046:C_N 3.15852e-05
33 *4055:A *725:29 5.0164e-05
34 *4055:A *725:31 4.03082e-05
35 *4055:B *4046:C_N 4.82919e-05
36 *265:12 *725:12 6.85065e-05
37 *265:12 *725:27 8.73147e-06
38 *266:10 *725:21 1.08758e-05
39 *268:10 *4046:C_N 3.11742e-05
40 *268:10 *725:31 1.53032e-05
41 *270:131 *725:21 4.47209e-05
42 *275:12 *4046:C_N 6.69679e-05
43 *625:39 *4046:C_N 7.48954e-05
44 *723:10 *725:12 0
45 *723:14 *725:27 0
*RES
1 *5027:X *725:6 2.05 
2 *725:6 *725:12 5.635 
3 *725:12 *3990:A 1.6 
4 *725:12 *725:21 1.5 
5 *725:21 *725:27 5.105 
6 *725:27 *725:29 1.89 
7 *725:29 *725:31 0.87 
8 *725:31 *4046:C_N 6.03 
9 *725:31 *4037:B 4.395 
10 *725:29 *4028:A 3.6 
11 *725:27 *725:60 2 
12 *725:60 *4008:C 3.9625 
13 *725:60 *4017:A 1.6 
14 *725:21 *4018:A 1.6 
15 *725:6 *3999:A_N 1.6 
*END

*D_NET *726 0.000411375
*CONN
*I *4570:D I *D sky130_fd_sc_hd__dfrtp_2
*I *4791:X O *D sky130_fd_sc_hd__dlygate4sd3_1
*CAP
1 *4570:D 0.000130694
2 *4791:X 0.000130694
3 *4570:D *1013:40 3.07539e-05
4 *4570:D *1013:42 0.000100848
5 *4570:D *1029:90 1.83847e-05
*RES
1 *4791:X *4570:D 9.54 
*END

*D_NET *727 0.000960685
*CONN
*I *4442:A1 I *D sky130_fd_sc_hd__mux2_1
*I *4450:A0 I *D sky130_fd_sc_hd__mux2_1
*I *4792:X O *D sky130_fd_sc_hd__dlygate4sd3_1
*CAP
1 *4442:A1 0
2 *4450:A0 0.000268785
3 *4792:X 0.000105814
4 *727:6 0.0003746
5 *4450:A0 *4356:A1 0
6 *4450:S *4450:A0 4.82863e-05
7 *559:10 *4450:A0 0
8 *585:37 *4450:A0 0
9 *722:32 *727:6 0.000163199
*RES
1 *4792:X *727:6 3.085 
2 *727:6 *4450:A0 9.725 
3 *727:6 *4442:A1 1.6 
*END

*D_NET *728 0.000213929
*CONN
*I *4649:D I *D sky130_fd_sc_hd__dfrtp_2
*I *4793:X O *D sky130_fd_sc_hd__dlygate4sd3_1
*CAP
1 *4649:D 0.000106965
2 *4793:X 0.000106965
*RES
1 *4793:X *4649:D 4.685 
*END

*D_NET *729 0.00269582
*CONN
*I *4068:A0 I *D sky130_fd_sc_hd__mux2_1
*I *4076:A1 I *D sky130_fd_sc_hd__mux2_1
*I *4794:X O *D sky130_fd_sc_hd__dlygate4sd3_1
*CAP
1 *4068:A0 0.0006801
2 *4076:A1 0
3 *4794:X 0.000210392
4 *729:10 0.000890491
5 *4068:A0 *4068:A1 4.99619e-05
6 *4068:A0 *4076:S 0.000290088
7 *4068:A0 *999:10 4.66108e-05
8 *4068:A0 *1000:14 6.6564e-05
9 *4068:A0 *1000:16 2.30292e-05
10 *4068:A0 *1001:8 6.47933e-05
11 *4068:A0 *1001:33 0.000163199
12 *4068:A0 *1001:44 0.000106908
13 *4068:A0 *1057:28 0
14 *729:10 *4076:S 4.55864e-06
15 *729:10 *1005:46 0
16 *729:10 *1060:12 9.91257e-05
17 *4574:CLK *4068:A0 0
18 *4574:D *4068:A0 0
19 *626:142 *4068:A0 0
20 *626:142 *729:10 0
*RES
1 *4794:X *729:10 6.72 
2 *729:10 *4076:A1 3.6 
3 *729:10 *4068:A0 16.98 
*END

*D_NET *730 0.000338337
*CONN
*I *4566:D I *D sky130_fd_sc_hd__dfrtp_2
*I *4795:X O *D sky130_fd_sc_hd__dlygate4sd3_1
*CAP
1 *4566:D 0.00012587
2 *4795:X 0.00012587
3 *4566:CLK *4566:D 8.65961e-05
*RES
1 *4795:X *4566:D 5.39 
*END

*D_NET *731 0.00192102
*CONN
*I *4071:A0 I *D sky130_fd_sc_hd__mux2_1
*I *4079:A1 I *D sky130_fd_sc_hd__mux2_1
*I *4796:X O *D sky130_fd_sc_hd__dlygate4sd3_1
*CAP
1 *4071:A0 0.000509977
2 *4079:A1 0.000144932
3 *4796:X 3.75508e-05
4 *731:6 0.00069246
5 *4071:A0 *4071:A1 4.99619e-05
6 *4071:A0 *4361:A1 6.52181e-05
7 *4071:A0 *4569:D 0
8 *4071:A0 *1063:10 0.000120186
9 *4079:A1 *4361:A1 4.11198e-05
10 *4079:A1 *1071:12 0
11 *4564:CLK *4071:A0 2.42236e-05
12 *4569:CLK *4079:A1 5.05437e-05
13 *4569:CLK *731:6 1.91597e-05
14 *4797:A *4071:A0 0.00016569
15 *4797:A *4079:A1 0
*RES
1 *4796:X *731:6 2.05 
2 *731:6 *4079:A1 7.775 
3 *731:6 *4071:A0 15.05 
*END

*D_NET *732 0.000529481
*CONN
*I *4569:D I *D sky130_fd_sc_hd__dfrtp_2
*I *4797:X O *D sky130_fd_sc_hd__dlygate4sd3_1
*CAP
1 *4569:D 0.000126226
2 *4797:X 0.000126226
3 *4071:A0 *4569:D 0
4 *4797:A *4569:D 0.000277029
*RES
1 *4797:X *4569:D 10.365 
*END

*D_NET *733 0.00128693
*CONN
*I *4487:A0 I *D sky130_fd_sc_hd__mux2_1
*I *4069:A1 I *D sky130_fd_sc_hd__mux2_1
*I *4798:X O *D sky130_fd_sc_hd__dlygate4sd3_1
*CAP
1 *4487:A0 0.000211376
2 *4069:A1 0.000136944
3 *4798:X 5.06455e-05
4 *733:10 0.000398966
5 *4069:A1 *4069:A0 4.99619e-05
6 *4069:A1 *4069:S 0.000134314
7 *4487:A0 *4069:S 2.05056e-05
8 *4487:A0 *4487:A1 4.99619e-05
9 *4487:A0 *4487:S 0.000138808
10 *733:10 *4798:A 0
11 *733:10 *992:12 9.54469e-05
*RES
1 *4798:X *733:10 6.725 
2 *733:10 *4069:A1 4.12 
3 *733:10 *4487:A0 5.155 
*END

*D_NET *734 0.000248902
*CONN
*I *4559:D I *D sky130_fd_sc_hd__dfrtp_2
*I *4799:X O *D sky130_fd_sc_hd__dlygate4sd3_1
*CAP
1 *4559:D 9.77134e-05
2 *4799:X 9.77134e-05
3 *4559:CLK *4559:D 5.34747e-05
*RES
1 *4799:X *4559:D 5.03 
*END

*D_NET *735 0.0014172
*CONN
*I *4458:A0 I *D sky130_fd_sc_hd__mux2_1
*I *4800:X O *D sky130_fd_sc_hd__dlygate4sd3_1
*CAP
1 *4458:A0 0.000412854
2 *4800:X 0.000412854
3 *4458:A0 *4466:A0 7.72197e-05
4 *4458:A0 *4657:D 3.86529e-05
5 *4458:A0 *4930:A 0
6 *4458:A1 *4458:A0 4.99619e-05
7 *4458:S *4458:A0 0.000425663
8 *4649:RESET_B *4458:A0 0
*RES
1 *4800:X *4458:A0 16.68 
*END

*D_NET *736 0.00151071
*CONN
*I *3989:A_N I *D sky130_fd_sc_hd__and4b_2
*I *4027:D I *D sky130_fd_sc_hd__nand4_2
*I *5028:X O *D sky130_fd_sc_hd__clkdlybuf4s25_1
*CAP
1 *3989:A_N 0
2 *4027:D 0.00025811
3 *5028:X 5.81594e-05
4 *736:6 0.00031627
5 *3965:C *736:6 0.0001249
6 *3989:D *4027:D 0.000170124
7 *5025:A *736:6 0.000159867
8 *5028:A *4027:D 0.000142604
9 *5028:A *736:6 4.82863e-05
10 *248:68 *4027:D 4.55864e-06
11 *718:8 *4027:D 0.0001249
12 *718:8 *736:6 0.00010293
*RES
1 *5028:X *736:6 4.465 
2 *736:6 *4027:D 11.06 
3 *736:6 *3989:A_N 1.6 
*END

*D_NET *737 0.00141627
*CONN
*I *4657:D I *D sky130_fd_sc_hd__dfrtp_2
*I *4801:X O *D sky130_fd_sc_hd__dlygate4sd3_1
*CAP
1 *4657:D 0.000516421
2 *4801:X 0.000516421
3 *4657:D *4930:A 0.000142548
4 *4657:D *5072:A 2.11084e-05
5 uo_out[7] *4657:D 9.27255e-06
6 *4458:A0 *4657:D 3.86529e-05
7 *4458:S *4657:D 0
8 *4641:CLK *4657:D 0.000171845
9 *4801:A *4657:D 0
*RES
1 *4801:X *4657:D 15.165 
*END

*D_NET *738 0.00253386
*CONN
*I *4113:A0 I *D sky130_fd_sc_hd__mux2_1
*I *4121:A1 I *D sky130_fd_sc_hd__mux2_1
*I *4802:X O *D sky130_fd_sc_hd__dlygate4sd3_1
*CAP
1 *4113:A0 0.000270451
2 *4121:A1 0.000263154
3 *4802:X 0
4 *738:6 0.000533605
5 *4113:A0 *4113:A1 0.000164874
6 *4113:A0 *4113:S 2.05056e-05
7 *4113:A0 *4165:C 0.000183743
8 *4113:A0 *4955:A 1.61831e-05
9 *4113:A0 *1004:60 0.000261642
10 *4113:A0 *1026:36 0
11 *4121:A1 *4121:A0 4.82919e-05
12 *4121:A1 *4165:C 5.53249e-06
13 *4121:A1 *1026:36 0.000138175
14 *4611:RESET_B *4121:A1 0
15 *4803:A *4121:A1 8.65905e-05
16 *314:25 *4121:A1 0
17 *613:22 *4113:A0 0.000541113
18 *706:73 *4121:A1 0
*RES
1 *4802:X *738:6 3.6 
2 *738:6 *4121:A1 8.775 
3 *738:6 *4113:A0 12.465 
*END

*D_NET *739 0.000466862
*CONN
*I *4611:D I *D sky130_fd_sc_hd__dfrtp_2
*I *4803:X O *D sky130_fd_sc_hd__dlygate4sd3_1
*CAP
1 *4611:D 0.000189298
2 *4803:X 0.000189298
3 *4611:CLK *4611:D 8.8266e-05
4 *4611:RESET_B *4611:D 0
5 *314:25 *4611:D 0
*RES
1 *4803:X *4611:D 10.155 
*END

*D_NET *740 0.00863112
*CONN
*I *4073:A1 I *D sky130_fd_sc_hd__mux2_1
*I *4065:A0 I *D sky130_fd_sc_hd__mux2_1
*I *4804:X O *D sky130_fd_sc_hd__dlygate4sd3_1
*CAP
1 *4073:A1 0.000875282
2 *4065:A0 0.00165058
3 *4804:X 0
4 *740:4 0.00252586
5 *4065:A0 *4065:A1 4.99619e-05
6 *4065:A0 *4068:A1 8.95933e-05
7 *4065:A0 *4084:A0 0.000313852
8 *4065:A0 *4084:S 4.35432e-05
9 *4065:A0 *4100:A0 0.000270089
10 *4065:A0 *4100:A1 0.000160213
11 *4065:A0 *4582:D 3.78263e-05
12 *4065:A0 *5048:A 0.000201508
13 *4065:A0 *893:6 0.000198939
14 *4065:A0 *1057:28 0.000323215
15 *4073:A1 *4073:A0 4.66108e-05
16 *4073:A1 *4097:A0 0.000246586
17 *4073:A1 *4097:A1 0.00019534
18 *4073:A1 *4942:A 9.70988e-05
19 *4073:A1 *893:6 0.000115146
20 *4073:A1 *1128:26 0.000144282
21 *4555:D *4065:A0 0
22 *4555:RESET_B *4065:A0 0
23 *4558:D *4065:A0 0.00013611
24 *4574:D *4065:A0 9.4087e-05
25 *4590:RESET_B *4073:A1 2.25223e-05
26 *4805:A *4073:A1 0
27 *627:76 *4073:A1 3.16307e-05
28 *627:80 *4065:A0 7.38927e-05
29 *627:80 *4073:A1 3.99879e-05
30 *704:10 *4073:A1 0.000357269
31 *704:22 *4073:A1 0.000261899
32 *704:76 *4065:A0 2.8185e-05
*RES
1 *4804:X *740:4 1.6 
2 *740:4 *4065:A0 33.935 
3 *740:4 *4073:A1 21.71 
*END

*D_NET *741 0.000206247
*CONN
*I *4563:D I *D sky130_fd_sc_hd__dfrtp_2
*I *4805:X O *D sky130_fd_sc_hd__dlygate4sd3_1
*CAP
1 *4563:D 3.94403e-05
2 *4805:X 3.94403e-05
3 *4563:D *4097:A1 3.39667e-05
4 *4805:A *4563:D 9.33998e-05
*RES
1 *4805:X *4563:D 8.325 
*END

*D_NET *742 0.000269901
*CONN
*I *3993:A0 I *D sky130_fd_sc_hd__mux2_1
*I *4806:X O *D sky130_fd_sc_hd__dlygate4sd3_1
*CAP
1 *3993:A0 7.24873e-05
2 *4806:X 7.24873e-05
3 *3993:A0 *3993:A1 2.11084e-05
4 *3993:A0 *4492:RESET_B 5.30673e-05
5 *3993:A0 *947:34 5.0751e-05
*RES
1 *4806:X *3993:A0 5.03 
*END

*D_NET *743 0.000620855
*CONN
*I *4000:A0 I *D sky130_fd_sc_hd__mux2_1
*I *4807:X O *D sky130_fd_sc_hd__dlygate4sd3_1
*CAP
1 *4000:A0 0.000144865
2 *4807:X 0.000144865
3 *4000:A0 *4486:A0 0.000203178
4 *4000:A0 *902:20 2.7441e-05
5 *4000:A0 *902:30 4.99619e-05
6 *4000:S *4000:A0 5.05437e-05
7 *4807:A *4000:A0 0
*RES
1 *4807:X *4000:A0 10.665 
*END

*D_NET *744 0.00117492
*CONN
*I *4013:A0 I *D sky130_fd_sc_hd__mux2_1
*I *4808:X O *D sky130_fd_sc_hd__dlygate4sd3_1
*CAP
1 *4013:A0 0.000218361
2 *4808:X 0.000218361
3 *4013:A0 *4013:A1 8.23457e-05
4 *4013:A0 *4234:A_N 4.00541e-06
5 *4013:A0 *4235:A_N 0.00019333
6 *4013:A0 *1010:30 0.000124007
7 *4013:A0 *1010:58 0.000155497
8 *4013:A0 *1025:46 8.34281e-06
9 *4013:A0 *1025:68 6.1357e-05
10 *4234:C *4013:A0 4.21973e-05
11 *4236:B *4013:A0 4.66108e-05
12 *624:121 *4013:A0 2.05056e-05
*RES
1 *4808:X *4013:A0 9.29 
*END

*D_NET *745 0.0019639
*CONN
*I *4446:A0 I *D sky130_fd_sc_hd__mux2_1
*I *4809:X O *D sky130_fd_sc_hd__dlygate4sd3_1
*CAP
1 *4446:A0 0.000681404
2 *4809:X 0.000681404
3 *4446:A0 *4645:D 7.06865e-05
4 *4707:A *4446:A0 0.000237243
5 *4722:A *4446:A0 8.65905e-05
6 *629:6 *4446:A0 2.55503e-05
7 *629:25 *4446:A0 0.000181023
*RES
1 *4809:X *4446:A0 16.8 
*END

*D_NET *746 0.00114771
*CONN
*I *4645:D I *D sky130_fd_sc_hd__dfrtp_2
*I *4810:X O *D sky130_fd_sc_hd__dlygate4sd3_1
*CAP
1 *4645:D 0.000377032
2 *4810:X 0.000377032
3 *4446:A0 *4645:D 7.06865e-05
4 *4722:A *4645:D 0.000163204
5 *262:60 *4645:D 0
6 *262:105 *4645:D 0.000159755
7 *613:106 *4645:D 0
*RES
1 *4810:X *4645:D 13.89 
*END

*D_NET *747 0.00170683
*CONN
*I *5065:A I *D sky130_fd_sc_hd__clkdlybuf4s25_1
*I *4883:A I *D sky130_fd_sc_hd__dlygate4sd3_1
*I *4666:Q O *D sky130_fd_sc_hd__dfrtp_2
*CAP
1 *5065:A 0.000137035
2 *4883:A 0
3 *4666:Q 0.000127491
4 *747:10 0.000264526
5 *5065:A *5066:A 0.000155176
6 *747:10 *5066:A 0.000184423
7 *747:10 *758:8 0.000139933
8 uio_oe[3] *5065:A 0.000237238
9 uio_out[0] *5065:A 2.4997e-05
10 uo_out[0] *5065:A 0.000120186
11 uo_out[0] *747:10 0.000315825
*RES
1 *4666:Q *747:10 7.725 
2 *747:10 *4883:A 3.6 
3 *747:10 *5065:A 7.665 
*END

*D_NET *748 0.0007589
*CONN
*I *4004:A0 I *D sky130_fd_sc_hd__mux2_1
*I *4811:X O *D sky130_fd_sc_hd__dlygate4sd3_1
*CAP
1 *4004:A0 0.000111787
2 *4811:X 0.000111787
3 *4004:A0 *4004:A1 4.66108e-05
4 *4004:A0 *1042:61 0.000134931
5 *4237:A2 *4004:A0 3.29689e-05
6 *272:57 *4004:A0 0.000168942
7 *275:61 *4004:A0 7.00115e-05
8 *276:23 *4004:A0 8.18626e-05
*RES
1 *4811:X *4004:A0 10.665 
*END

*D_NET *749 0.00133786
*CONN
*I *4461:A0 I *D sky130_fd_sc_hd__mux2_1
*I *4453:A1 I *D sky130_fd_sc_hd__mux2_1
*I *4812:X O *D sky130_fd_sc_hd__dlygate4sd3_1
*CAP
1 *4461:A0 0
2 *4453:A1 0.000166309
3 *4812:X 3.37624e-05
4 *749:8 0.000200071
5 *4453:A1 *4453:A0 8.57024e-05
6 *4453:S *4453:A1 2.75145e-05
7 *4812:A *4453:A1 0.000183043
8 *4812:A *749:8 0.000143266
9 *260:70 *749:8 0.000118527
10 *260:72 *4453:A1 0.00035825
11 *260:72 *749:8 2.14129e-05
12 *629:156 *4453:A1 0
*RES
1 *4812:X *749:8 5.235 
2 *749:8 *4453:A1 8.58 
3 *749:8 *4461:A0 3.6 
*END

*D_NET *750 0.00076092
*CONN
*I *4660:D I *D sky130_fd_sc_hd__dfrtp_2
*I *4813:X O *D sky130_fd_sc_hd__dlygate4sd3_1
*CAP
1 *4660:D 0.000306793
2 *4813:X 0.000306793
3 *4661:RESET_B *4660:D 0
4 *4812:A *4660:D 0
5 *258:39 *4660:D 0.0001249
6 *629:156 *4660:D 2.24336e-05
7 *717:10 *4660:D 0
*RES
1 *4813:X *4660:D 12.015 
*END

*D_NET *751 0.0014743
*CONN
*I *3994:A0 I *D sky130_fd_sc_hd__mux2_1
*I *4814:X O *D sky130_fd_sc_hd__dlygate4sd3_1
*CAP
1 *3994:A0 0.000265352
2 *4814:X 0.000265352
3 *3994:A0 *4330:A_N 0
4 *3994:A0 *4331:B1 0.000312778
5 *3994:A0 *958:74 0.000201503
6 *4204:A3 *3994:A0 0.000201503
7 *4493:D *3994:A0 0.000162332
8 *274:50 *3994:A0 6.54766e-05
*RES
1 *4814:X *3994:A0 14.19 
*END

*D_NET *752 0.00134755
*CONN
*I *4123:A0 I *D sky130_fd_sc_hd__mux2_1
*I *4815:X O *D sky130_fd_sc_hd__dlygate4sd3_1
*CAP
1 *4123:A0 0.000264566
2 *4815:X 0.000264566
3 *4123:A0 *992:12 0.000252282
4 *4215:B2 *4123:A0 0.000252282
5 *623:6 *4123:A0 0.000313857
*RES
1 *4815:X *4123:A0 12.975 
*END

*D_NET *753 0.000666769
*CONN
*I *4613:D I *D sky130_fd_sc_hd__dfrtp_2
*I *4816:X O *D sky130_fd_sc_hd__dlygate4sd3_1
*CAP
1 *4613:D 0.000240529
2 *4816:X 0.000240529
3 *4613:D *4123:A1 6.5525e-05
4 *4816:A *4613:D 0.000120186
*RES
1 *4816:X *4613:D 10.755 
*END

*D_NET *754 0.000503379
*CONN
*I *4011:A0 I *D sky130_fd_sc_hd__mux2_1
*I *4817:X O *D sky130_fd_sc_hd__dlygate4sd3_1
*CAP
1 *4011:A0 4.31446e-05
2 *4817:X 4.31446e-05
3 *4011:A0 *4011:A1 0.000203178
4 *4011:A0 *995:37 4.82919e-05
5 *268:101 *4011:A0 0.00012657
6 *268:107 *4011:A0 3.90495e-05
*RES
1 *4817:X *4011:A0 5.375 
*END

*D_NET *755 0.000325904
*CONN
*I *4014:A0 I *D sky130_fd_sc_hd__mux2_1
*I *4818:X O *D sky130_fd_sc_hd__dlygate4sd3_1
*CAP
1 *4014:A0 0.000128165
2 *4818:X 0.000128165
3 *4014:A0 *1028:12 6.95739e-05
*RES
1 *4818:X *4014:A0 8.865 
*END

*D_NET *756 0.000991114
*CONN
*I *3992:A0 I *D sky130_fd_sc_hd__mux2_1
*I *4819:X O *D sky130_fd_sc_hd__dlygate4sd3_1
*CAP
1 *3992:A0 0.000382894
2 *4819:X 0.000382894
3 *3992:A0 *947:26 0.000116165
4 *4158:A3 *3992:A0 6.01103e-05
5 *4491:D *3992:A0 0
6 *4819:A *3992:A0 1.83847e-05
7 *5017:A *3992:A0 0
8 *289:18 *3992:A0 3.06659e-05
*RES
1 *4819:X *3992:A0 12.39 
*END

*D_NET *757 0.00173898
*CONN
*I *4460:A0 I *D sky130_fd_sc_hd__mux2_1
*I *4452:A1 I *D sky130_fd_sc_hd__mux2_1
*I *4820:X O *D sky130_fd_sc_hd__dlygate4sd3_1
*CAP
1 *4460:A0 2.97212e-05
2 *4452:A1 0.000388056
3 *4820:X 0.000236541
4 *757:10 0.000654317
5 *4452:A1 *4468:A0 9.23864e-05
6 *4452:S *4452:A1 2.75229e-05
7 *260:70 *4460:A0 3.86607e-05
8 *260:70 *757:10 0.000101317
9 *263:39 *4452:A1 2.75145e-05
10 *717:64 *757:10 7.81954e-05
11 *717:73 *4460:A0 3.4222e-05
12 *717:73 *757:10 3.05295e-05
*RES
1 *4820:X *757:10 7.575 
2 *757:10 *4452:A1 8.19 
3 *757:10 *4460:A0 4.47 
*END

*D_NET *758 0.00190363
*CONN
*I *5066:A I *D sky130_fd_sc_hd__clkdlybuf4s25_1
*I *4918:A I *D sky130_fd_sc_hd__dlygate4sd3_1
*I *4667:Q O *D sky130_fd_sc_hd__dfrtp_2
*CAP
1 *5066:A 0.000390217
2 *4918:A 3.76639e-05
3 *4667:Q 0.000164523
4 *758:8 0.000592404
5 *5066:A *4467:A1 0
6 *758:8 *4468:A1 0
7 uio_oe[4] *5066:A 0
8 uio_out[0] *5066:A 0.000166715
9 uo_out[0] *758:8 7.25779e-05
10 *4467:S *758:8 0
11 *4884:A *5066:A 0
12 *5065:A *5066:A 0.000155176
13 *747:10 *5066:A 0.000184423
14 *747:10 *758:8 0.000139933
*RES
1 *4667:Q *758:8 7.275 
2 *758:8 *4918:A 4.05 
3 *758:8 *5066:A 11.655 
*END

*D_NET *759 0.000829298
*CONN
*I *4659:D I *D sky130_fd_sc_hd__dfrtp_2
*I *4821:X O *D sky130_fd_sc_hd__dlygate4sd3_1
*CAP
1 *4659:D 0.000243509
2 *4821:X 0.000243509
3 *4659:CLK *4659:D 0.000143266
4 *260:68 *4659:D 0
5 *260:70 *4659:D 0
6 *628:125 *4659:D 6.6925e-05
7 *628:129 *4659:D 0.000132089
*RES
1 *4821:X *4659:D 11.85 
*END

*D_NET *760 0.0019314
*CONN
*I *4108:A0 I *D sky130_fd_sc_hd__mux2_1
*I *4116:A1 I *D sky130_fd_sc_hd__mux2_1
*I *4822:X O *D sky130_fd_sc_hd__dlygate4sd3_1
*CAP
1 *4108:A0 0.000215747
2 *4116:A1 0.00047971
3 *4822:X 0
4 *760:6 0.000695456
5 *4108:A0 *1003:46 0.00015896
6 *4108:A0 *1011:94 1.08758e-05
7 *4108:A0 *1019:89 0
8 *4116:A1 *4116:A0 2.93678e-05
9 *4116:A1 *4116:S 7.40635e-05
10 *4116:A1 *1011:30 1.83847e-05
11 *4116:A1 *1011:69 7.06865e-05
12 *4116:A1 *1019:89 0
13 *4116:A1 *1130:29 8.10191e-05
14 *4598:D *4108:A0 5.83121e-06
15 *4598:RESET_B *4108:A0 9.1303e-05
*RES
1 *4822:X *760:6 3.6 
2 *760:6 *4116:A1 9.75 
3 *760:6 *4108:A0 7.995 
*END

*D_NET *761 0.000246591
*CONN
*I *4606:D I *D sky130_fd_sc_hd__dfrtp_2
*I *4823:X O *D sky130_fd_sc_hd__dlygate4sd3_1
*CAP
1 *4606:D 3.01218e-05
2 *4823:X 3.01218e-05
3 *4606:D *4124:S 9.16019e-05
4 *4606:D *4160:A 9.47454e-05
*RES
1 *4823:X *4606:D 8.325 
*END

*D_NET *762 0.00172995
*CONN
*I *4455:A0 I *D sky130_fd_sc_hd__mux2_1
*I *4447:A1 I *D sky130_fd_sc_hd__mux2_1
*I *4824:X O *D sky130_fd_sc_hd__dlygate4sd3_1
*CAP
1 *4455:A0 0
2 *4447:A1 0.000368996
3 *4824:X 0.000329675
4 *762:12 0.000698671
5 *762:12 *4398:A1 0
6 *4447:S *4447:A1 3.45588e-05
7 *4455:A1 *4447:A1 4.99619e-05
8 *4631:RESET_B *4447:A1 5.83121e-06
9 *4824:A *762:12 7.4027e-05
10 *263:51 *4447:A1 1.61831e-05
11 *263:51 *762:12 0.000133657
12 *263:61 *4447:A1 1.83847e-05
*RES
1 *4824:X *762:12 10.685 
2 *762:12 *4447:A1 5.845 
3 *762:12 *4455:A0 1.6 
*END

*D_NET *763 0.000740794
*CONN
*I *4654:D I *D sky130_fd_sc_hd__dfrtp_2
*I *4825:X O *D sky130_fd_sc_hd__dlygate4sd3_1
*CAP
1 *4654:D 0.000207457
2 *4825:X 0.000207457
3 *4654:D *4463:A1 0
4 *4654:D *5003:A 1.19028e-05
5 *4654:RESET_B *4654:D 4.82919e-05
6 *4825:A *4654:D 7.81914e-05
7 *263:51 *4654:D 0.00015997
8 *263:61 *4654:D 0
9 *615:77 *4654:D 2.75229e-05
*RES
1 *4825:X *4654:D 11.265 
*END

*D_NET *764 0.00173575
*CONN
*I *4462:A0 I *D sky130_fd_sc_hd__mux2_1
*I *4454:A1 I *D sky130_fd_sc_hd__mux2_1
*I *4826:X O *D sky130_fd_sc_hd__dlygate4sd3_1
*CAP
1 *4462:A0 0
2 *4454:A1 0.000257534
3 *4826:X 0.000152217
4 *764:12 0.000409751
5 *4454:A1 *4445:A1 0.000540219
6 *764:12 *4445:A1 0.000198939
7 *764:12 *799:8 9.30717e-05
8 *4827:A *764:12 8.40213e-05
*RES
1 *4826:X *764:12 8.9 
2 *764:12 *4454:A1 6.535 
3 *764:12 *4462:A0 1.6 
*END

*D_NET *765 0.000662387
*CONN
*I *4661:D I *D sky130_fd_sc_hd__dfrtp_2
*I *4827:X O *D sky130_fd_sc_hd__dlygate4sd3_1
*CAP
1 *4661:D 0.000176921
2 *4827:X 0.000176921
3 *4661:D *4669:D 4.99619e-05
4 *4669:RESET_B *4661:D 0.000210144
5 *716:10 *4661:D 0
6 *721:100 *4661:D 4.84393e-05
*RES
1 *4827:X *4661:D 11.07 
*END

*D_NET *766 0.00130755
*CONN
*I *4438:A1 I *D sky130_fd_sc_hd__mux2_1
*I *4449:A0 I *D sky130_fd_sc_hd__mux2_1
*I *4828:X O *D sky130_fd_sc_hd__dlygate4sd3_1
*CAP
1 *4438:A1 5.37244e-05
2 *4449:A0 0.000262272
3 *4828:X 0.000315997
4 *4442:S *4438:A1 4.82863e-05
5 *4449:A1 *4449:A0 2.11084e-05
6 *4449:S *4449:A0 0
7 *4450:S *4438:A1 0.000184234
8 *4632:RESET_B *4438:A1 0.000353831
9 *4828:A *4449:A0 2.87867e-05
10 *722:32 *4449:A0 3.93106e-05
*RES
1 *4828:X *4449:A0 11.25 
2 *4828:X *4438:A1 6.41 
*END

*D_NET *767 0.00095924
*CONN
*I *4648:D I *D sky130_fd_sc_hd__dfrtp_2
*I *4829:X O *D sky130_fd_sc_hd__dlygate4sd3_1
*CAP
1 *4648:D 0.000284824
2 *4829:X 0.000284824
3 *4648:D *4457:A0 0.000148968
4 *4664:RESET_B *4648:D 0
5 *4890:A *4648:D 0.000145184
6 *616:111 *4648:D 9.54399e-05
7 *715:10 *4648:D 0
*RES
1 *4829:X *4648:D 12.54 
*END

*D_NET *768 0.00124811
*CONN
*I *4459:A0 I *D sky130_fd_sc_hd__mux2_1
*I *4451:A1 I *D sky130_fd_sc_hd__mux2_1
*I *4830:X O *D sky130_fd_sc_hd__dlygate4sd3_1
*CAP
1 *4459:A0 0
2 *4451:A1 0.000197395
3 *4830:X 2.98656e-05
4 *768:6 0.00022726
5 *4451:A1 *4467:A0 4.99619e-05
6 *768:6 *4467:A0 0.000188957
7 *4451:S *4451:A1 0.000187766
8 *4830:A *768:6 0.000162311
9 *4859:A *4451:A1 6.55328e-05
10 *260:55 *4451:A1 4.82863e-05
11 *260:68 *4451:A1 6.77501e-05
12 *260:68 *768:6 2.30292e-05
*RES
1 *4830:X *768:6 3.43 
2 *768:6 *4451:A1 10.265 
3 *768:6 *4459:A0 1.6 
*END

*D_NET *769 0.00168303
*CONN
*I *5067:A I *D sky130_fd_sc_hd__clkdlybuf4s25_1
*I *4925:A I *D sky130_fd_sc_hd__dlygate4sd3_1
*I *4668:Q O *D sky130_fd_sc_hd__dfrtp_2
*CAP
1 *5067:A 0.000222898
2 *4925:A 3.37454e-05
3 *4668:Q 0.00028917
4 *769:8 0.000545814
5 *5067:A *4468:A1 7.00889e-06
6 uo_out[2] *5067:A 0.000105849
7 uo_out[2] *769:8 0.000238427
8 *4666:RESET_B *5067:A 0
9 *4666:RESET_B *769:8 0
10 *4667:RESET_B *5067:A 8.08153e-06
11 *4735:A *769:8 7.89689e-05
12 *5043:A *769:8 0
13 *258:53 *769:8 0.000109346
14 *719:14 *769:8 4.37257e-05
*RES
1 *4668:Q *769:8 11.1 
2 *769:8 *4925:A 4.05 
3 *769:8 *5067:A 7.83 
*END

*D_NET *770 0.000408104
*CONN
*I *4658:D I *D sky130_fd_sc_hd__dfrtp_2
*I *4831:X O *D sky130_fd_sc_hd__dlygate4sd3_1
*CAP
1 *4658:D 9.13997e-05
2 *4831:X 9.13997e-05
3 *4658:D *1120:8 0.000122331
4 *4650:RESET_B *4658:D 4.50017e-05
5 *4830:A *4658:D 4.94404e-05
6 *717:73 *4658:D 8.53113e-06
*RES
1 *4831:X *4658:D 9.465 
*END

*D_NET *771 0.000772391
*CONN
*I *4026:A0 I *D sky130_fd_sc_hd__mux2_1
*I *4832:X O *D sky130_fd_sc_hd__dlygate4sd3_1
*CAP
1 *4026:A0 0.000241141
2 *4832:X 0.000241141
3 *4026:A0 *4369:A2 0
4 *4026:A0 *891:26 4.82863e-05
5 *4026:A0 *947:26 4.93402e-05
6 *4026:A1 *4026:A0 5.83121e-06
7 *381:24 *4026:A0 0.00015896
8 *696:101 *4026:A0 2.76908e-05
*RES
1 *4832:X *4026:A0 11.115 
*END

*D_NET *772 0.00220124
*CONN
*I *3978:A1 I *D sky130_fd_sc_hd__a21bo_2
*I *3985:A2 I *D sky130_fd_sc_hd__o22a_2
*I *4833:X O *D sky130_fd_sc_hd__dlygate4sd3_1
*CAP
1 *3978:A1 1.78579e-05
2 *3985:A2 0.000675609
3 *4833:X 0.000693467
4 *3985:A2 *3969:B 1.34361e-05
5 *3985:A2 *1050:22 0.000428764
6 *3969:A *3985:A2 4.35432e-05
7 *3969:C *3985:A2 5.4003e-05
8 *3979:A *3985:A2 0
9 *4681:D *3978:A1 8.57024e-05
10 *4834:A *3985:A2 6.3124e-06
11 *251:10 *3978:A1 4.82863e-05
12 *251:10 *3985:A2 2.75229e-05
13 *251:23 *3978:A1 4.82919e-05
14 *254:14 *3985:A2 5.4003e-05
15 *694:59 *3985:A2 4.43871e-06
16 *711:79 *3985:A2 0
17 *711:89 *3985:A2 0
*RES
1 *4833:X *3985:A2 17.115 
2 *4833:X *3978:A1 3.995 
*END

*D_NET *773 0.000363344
*CONN
*I *4677:D I *D sky130_fd_sc_hd__dfstp_2
*I *4834:X O *D sky130_fd_sc_hd__dlygate4sd3_1
*CAP
1 *4677:D 3.0066e-05
2 *4834:X 3.0066e-05
3 *252:10 *4677:D 0.000122155
4 *627:146 *4677:D 0.000164874
5 *627:159 *4677:D 1.61831e-05
*RES
1 *4834:X *4677:D 5.03 
*END

*D_NET *774 0.000866132
*CONN
*I *4015:A0 I *D sky130_fd_sc_hd__mux2_1
*I *4835:X O *D sky130_fd_sc_hd__dlygate4sd3_1
*CAP
1 *4015:A0 0.000208623
2 *4835:X 0.000208623
3 *4015:A0 *4784:A 0.000139561
4 *4015:A0 *1009:79 0.000234674
5 *619:138 *4015:A0 6.36578e-05
6 *619:142 *4015:A0 1.09931e-05
*RES
1 *4835:X *4015:A0 11.01 
*END

*D_NET *775 0.00340067
*CONN
*I *4090:A1 I *D sky130_fd_sc_hd__mux2_1
*I *4082:A0 I *D sky130_fd_sc_hd__mux2_1
*I *4836:X O *D sky130_fd_sc_hd__dlygate4sd3_1
*CAP
1 *4090:A1 0
2 *4082:A0 0.000978742
3 *4836:X 0.00027851
4 *775:12 0.00125725
5 *4082:A0 *4180:A_N 0.000121437
6 *4082:A0 *997:12 3.45588e-05
7 *775:12 *4090:S 0.000456283
8 *775:12 *4180:A_N 8.40213e-05
9 *4837:A *4082:A0 3.03775e-05
10 *722:52 *775:12 0.000159488
*RES
1 *4836:X *775:12 11.855 
2 *775:12 *4082:A0 13.465 
3 *775:12 *4090:A1 1.6 
*END

*D_NET *776 0.000596972
*CONN
*I *4580:D I *D sky130_fd_sc_hd__dfrtp_2
*I *4837:X O *D sky130_fd_sc_hd__dlygate4sd3_1
*CAP
1 *4580:D 0.000153056
2 *4837:X 0.000153056
3 *4580:D *4106:S 1.26626e-05
4 *4580:D *4895:A 4.94404e-05
5 *4564:RESET_B *4580:D 0.000158072
6 *697:12 *4580:D 7.06865e-05
*RES
1 *4837:X *4580:D 9.81 
*END

*D_NET *777 0.00179927
*CONN
*I *4426:A1 I *D sky130_fd_sc_hd__mux2_1
*I *4447:A0 I *D sky130_fd_sc_hd__mux2_1
*I *4838:X O *D sky130_fd_sc_hd__dlygate4sd3_1
*CAP
1 *4426:A1 0.000356491
2 *4447:A0 3.27365e-05
3 *4838:X 0.000171699
4 *777:8 0.000560926
5 *4426:S *4426:A1 5.07419e-05
6 *4638:RESET_B *777:8 0.00024514
7 *4646:D *4426:A1 4.66108e-05
8 *4646:D *4447:A0 2.46089e-05
9 *4646:D *777:8 7.21296e-06
10 *4695:A *777:8 0
11 *4838:A *777:8 7.4027e-05
12 *259:56 *777:8 0
13 *615:59 *4426:A1 3.43427e-05
14 *615:66 *4426:A1 9.14601e-05
15 *714:76 *4447:A0 7.23533e-05
16 *714:76 *777:8 3.09233e-05
*RES
1 *4838:X *777:8 7.785 
2 *777:8 *4447:A0 4.47 
3 *777:8 *4426:A1 8.19 
*END

*D_NET *778 0.00191291
*CONN
*I *4452:A0 I *D sky130_fd_sc_hd__mux2_1
*I *4444:A1 I *D sky130_fd_sc_hd__mux2_1
*I *4839:X O *D sky130_fd_sc_hd__dlygate4sd3_1
*CAP
1 *4452:A0 0
2 *4444:A1 0.000256784
3 *4839:X 0.000258326
4 *778:12 0.000515109
5 *4444:A1 *4444:A0 4.99619e-05
6 *4451:S *778:12 0.000140836
7 *4643:RESET_B *778:12 5.39718e-05
8 *4865:A *778:12 4.80285e-05
9 *263:39 *4444:A1 0.000542788
10 *628:110 *778:12 4.7101e-05
*RES
1 *4839:X *778:12 10.34 
2 *778:12 *4444:A1 6.895 
3 *778:12 *4452:A0 1.6 
*END

*D_NET *779 0.00144005
*CONN
*I *4464:A0 I *D sky130_fd_sc_hd__mux2_1
*I *4456:A1 I *D sky130_fd_sc_hd__mux2_1
*I *4840:X O *D sky130_fd_sc_hd__dlygate4sd3_1
*CAP
1 *4464:A0 0.000151831
2 *4456:A1 0.000123057
3 *4840:X 0.000131782
4 *779:6 0.000406669
5 *4456:S *4456:A1 4.89395e-05
6 *4465:S *4464:A0 0.000168819
7 *4841:A *4456:A1 8.52972e-05
8 *713:12 *4464:A0 6.90972e-05
9 *721:27 *4456:A1 7.58267e-05
10 *721:27 *779:6 0.000178736
*RES
1 *4840:X *779:6 4.465 
2 *779:6 *4456:A1 4.12 
3 *779:6 *4464:A0 9.275 
*END

*D_NET *780 0.00252605
*CONN
*I *4928:A I *D sky130_fd_sc_hd__dlygate4sd3_1
*I *5068:A I *D sky130_fd_sc_hd__clkdlybuf4s25_1
*I *4669:Q O *D sky130_fd_sc_hd__dfrtp_2
*CAP
1 *4928:A 0
2 *5068:A 0.00045188
3 *4669:Q 0.000170565
4 *780:12 0.000622445
5 *5068:A *4914:A 0
6 *780:12 *4470:A1 0.000270658
7 *780:12 *5069:A 0.00019637
8 *4473:S *5068:A 0.000190927
9 *4670:RESET_B *5068:A 0
10 *4735:A *780:12 0.000178504
11 *4915:A *5068:A 6.28843e-05
12 *258:59 *5068:A 2.42236e-05
13 *258:59 *780:12 2.84224e-05
14 *258:70 *5068:A 3.85797e-05
15 *716:10 *5068:A 0.000290591
16 *721:100 *5068:A 0
*RES
1 *4669:Q *780:12 11.105 
2 *780:12 *5068:A 15.65 
3 *780:12 *4928:A 1.6 
*END

*D_NET *781 0.000449168
*CONN
*I *4663:D I *D sky130_fd_sc_hd__dfrtp_2
*I *4841:X O *D sky130_fd_sc_hd__dlygate4sd3_1
*CAP
1 *4663:D 0.000203417
2 *4841:X 0.000203417
3 *4465:S *4663:D 4.23341e-05
*RES
1 *4841:X *4663:D 10.41 
*END

*D_NET *782 0.00249999
*CONN
*I *4064:A1 I *D sky130_fd_sc_hd__mux2_1
*I *4482:A0 I *D sky130_fd_sc_hd__mux2_1
*I *4842:X O *D sky130_fd_sc_hd__dlygate4sd3_1
*CAP
1 *4064:A1 0.000654438
2 *4482:A0 0.000133165
3 *4842:X 0
4 *782:4 0.000787602
5 *4064:A1 *4842:A 0
6 *4064:A1 *4843:A 0
7 *4064:A1 *984:10 0.000123225
8 *4064:A1 *1000:22 0
9 *4482:A0 *4068:A1 0.000279787
10 *4482:A0 *4482:A1 4.99619e-05
11 *4482:A0 *4482:S 0.000163199
12 *4482:A0 *984:10 4.77076e-05
13 *4685:RESET_B *4064:A1 0.000114469
14 *3:30 *4064:A1 8.20561e-06
15 *265:6 *4064:A1 0.000110793
16 *271:6 *4482:A0 2.7441e-05
*RES
1 *4842:X *782:4 1.6 
2 *782:4 *4482:A0 9.755 
3 *782:4 *4064:A1 15.305 
*END

*D_NET *783 0.00196674
*CONN
*I *4065:A1 I *D sky130_fd_sc_hd__mux2_1
*I *4483:A0 I *D sky130_fd_sc_hd__mux2_1
*I *4843:X O *D sky130_fd_sc_hd__dlygate4sd3_1
*CAP
1 *4065:A1 0.000293762
2 *4483:A0 0.000150883
3 *4843:X 0
4 *783:4 0.000444644
5 *4065:A1 *4068:A1 0.000666243
6 *4483:A0 *4068:A1 0.000312964
7 *4065:A0 *4065:A1 4.99619e-05
8 *4555:D *4065:A1 4.82863e-05
*RES
1 *4843:X *783:4 1.6 
2 *783:4 *4483:A0 4.465 
3 *783:4 *4065:A1 7.915 
*END

*D_NET *784 0.000386499
*CONN
*I *4053:A1 I *D sky130_fd_sc_hd__mux2_1
*I *4844:X O *D sky130_fd_sc_hd__dlygate4sd3_1
*CAP
1 *4053:A1 4.65945e-05
2 *4844:X 4.65945e-05
3 *4053:A1 *4053:A0 0.000198046
4 *274:50 *4053:A1 9.52646e-05
*RES
1 *4844:X *4053:A1 5.03 
*END

*D_NET *785 0.000423534
*CONN
*I *4050:A1 I *D sky130_fd_sc_hd__mux2_1
*I *4845:X O *D sky130_fd_sc_hd__dlygate4sd3_1
*CAP
1 *4050:A1 0.000109237
2 *4845:X 0.000109237
3 *4050:A1 *4050:A0 8.65905e-05
4 *4050:A1 *991:62 0
5 *4050:A1 *1043:59 9.54399e-05
6 *4050:S *4050:A1 2.30292e-05
*RES
1 *4845:X *4050:A1 9.465 
*END

*D_NET *786 0.00126053
*CONN
*I *3988:A0 I *D sky130_fd_sc_hd__mux2_1
*I *4071:A1 I *D sky130_fd_sc_hd__mux2_1
*I *4846:X O *D sky130_fd_sc_hd__dlygate4sd3_1
*CAP
1 *3988:A0 0.000289652
2 *4071:A1 0.000288895
3 *4846:X 0.000578547
4 *3988:A0 *4846:A 0
5 *4071:A0 *4071:A1 4.99619e-05
6 *4489:D *3988:A0 0
7 *4489:RESET_B *3988:A0 0
8 *4561:D *4071:A1 5.34747e-05
*RES
1 *4846:X *4071:A1 8.135 
2 *4846:X *3988:A0 11.25 
*END

*D_NET *787 0.000534066
*CONN
*I *4067:A1 I *D sky130_fd_sc_hd__mux2_1
*I *4485:A0 I *D sky130_fd_sc_hd__mux2_1
*I *4847:X O *D sky130_fd_sc_hd__dlygate4sd3_1
*CAP
1 *4067:A1 0
2 *4485:A0 0.000105059
3 *4847:X 0.000106138
4 *787:6 0.000211197
5 *4485:A0 *4485:S 9.428e-05
6 *4485:A0 *993:56 1.1561e-05
7 *787:6 *4067:A0 5.83121e-06
8 *4687:D *4485:A0 0
*RES
1 *4847:X *787:6 3.085 
2 *787:6 *4485:A0 8 
3 *787:6 *4067:A1 1.6 
*END

*D_NET *788 0.000560765
*CONN
*I *3995:A0 I *D sky130_fd_sc_hd__mux2_1
*I *4848:X O *D sky130_fd_sc_hd__dlygate4sd3_1
*CAP
1 *3995:A0 0.000222497
2 *4848:X 0.000222497
3 *3995:A0 *3995:A1 0.00011577
4 *4848:A *3995:A0 0
5 *266:26 *3995:A0 0
6 *266:34 *3995:A0 0
*RES
1 *4848:X *3995:A0 11.01 
*END

*D_NET *789 0.00238539
*CONN
*I *4075:A1 I *D sky130_fd_sc_hd__mux2_1
*I *4067:A0 I *D sky130_fd_sc_hd__mux2_1
*I *4849:X O *D sky130_fd_sc_hd__dlygate4sd3_1
*CAP
1 *4075:A1 0.000181267
2 *4067:A0 0.000162738
3 *4849:X 0.00026084
4 *789:8 0.000604845
5 *4067:A0 *4565:RESET_B 3.25831e-05
6 *4067:A0 *4687:RESET_B 0.000235585
7 *4067:A0 *993:56 0.000206149
8 *4075:A1 *4565:RESET_B 0.000110683
9 *4075:A1 *993:56 4.5783e-05
10 *4075:A1 *1034:58 0.000233925
11 *4075:A1 *1034:65 0.000108322
12 *789:8 *4557:RESET_B 0.000196833
13 *4557:D *4067:A0 0
14 *4565:D *4075:A1 0
15 *4687:D *4067:A0 0
16 *787:6 *4067:A0 5.83121e-06
*RES
1 *4849:X *789:8 6.81 
2 *789:8 *4067:A0 8.235 
3 *789:8 *4075:A1 8.55 
*END

*D_NET *790 0.00136338
*CONN
*I *4078:A1 I *D sky130_fd_sc_hd__mux2_1
*I *4070:A0 I *D sky130_fd_sc_hd__mux2_1
*I *4850:X O *D sky130_fd_sc_hd__dlygate4sd3_1
*CAP
1 *4078:A1 0.000136956
2 *4070:A0 0.000157407
3 *4850:X 0
4 *790:6 0.000294363
5 *4070:A0 *4070:S 0.000204729
6 *4070:A0 *990:38 2.98644e-05
7 *4070:A0 *1031:14 0
8 *4078:A1 *4078:A0 4.77807e-05
9 *4078:A1 *990:30 1.84465e-05
10 *4078:A1 *990:38 0.000340032
11 *4851:A *4078:A1 0.000114643
12 *614:66 *4078:A1 1.91597e-05
*RES
1 *4850:X *790:6 3.6 
2 *790:6 *4070:A0 6.96 
3 *790:6 *4078:A1 7.815 
*END

*D_NET *791 0.00142796
*CONN
*I *4738:A I *D sky130_fd_sc_hd__clkdlybuf4s25_1
*I *5029:X O *D sky130_fd_sc_hd__clkdlybuf4s25_1
*CAP
1 *4738:A 0.000458086
2 *5029:X 0.000458086
3 *5029:A *4738:A 0.000398505
4 *715:10 *4738:A 0.000113282
*RES
1 *5029:X *4738:A 11.945 
*END

*D_NET *792 0.00275943
*CONN
*I *5069:A I *D sky130_fd_sc_hd__clkdlybuf4s25_1
*I *4914:A I *D sky130_fd_sc_hd__dlygate4sd3_1
*I *4670:Q O *D sky130_fd_sc_hd__dfrtp_2
*CAP
1 *5069:A 0.000266095
2 *4914:A 0.000326614
3 *4670:Q 3.61979e-05
4 *792:8 0.000628907
5 *4914:A *803:8 0.000289247
6 *5069:A *4470:A1 1.03323e-05
7 uo_out[3] *4914:A 2.72764e-05
8 uo_out[5] *4914:A 0.000633091
9 *4735:A *4914:A 0.000163019
10 *4735:A *5069:A 0.000182276
11 *5068:A *4914:A 0
12 *258:59 *4914:A 0
13 *258:59 *5069:A 0
14 *780:12 *5069:A 0.00019637
*RES
1 *4670:Q *792:8 4.05 
2 *792:8 *4914:A 13.395 
3 *792:8 *5069:A 8.625 
*END

*D_NET *793 0.000593667
*CONN
*I *4568:D I *D sky130_fd_sc_hd__dfrtp_2
*I *4851:X O *D sky130_fd_sc_hd__dlygate4sd3_1
*CAP
1 *4568:D 0.000296833
2 *4851:X 0.000296833
*RES
1 *4851:X *4568:D 11.505 
*END

*D_NET *794 0.000971842
*CONN
*I *4043:A1 I *D sky130_fd_sc_hd__mux2_1
*I *4852:X O *D sky130_fd_sc_hd__dlygate4sd3_1
*CAP
1 *4043:A1 0.00035978
2 *4852:X 0.00035978
3 *4043:A1 *4043:A0 6.45236e-05
4 *4043:A1 *4487:A1 0.000187759
5 *4043:A1 *4815:A 0
6 *4043:A1 *994:29 0
*RES
1 *4852:X *4043:A1 12.63 
*END

*D_NET *795 0.000372574
*CONN
*I *4051:A1 I *D sky130_fd_sc_hd__mux2_1
*I *4853:X O *D sky130_fd_sc_hd__dlygate4sd3_1
*CAP
1 *4051:A1 0.000104685
2 *4853:X 0.000104685
3 *4034:S *4051:A1 0.000163204
*RES
1 *4853:X *4051:A1 4.685 
*END

*D_NET *796 0.0019827
*CONN
*I *4066:A1 I *D sky130_fd_sc_hd__mux2_1
*I *4484:A0 I *D sky130_fd_sc_hd__mux2_1
*I *4854:X O *D sky130_fd_sc_hd__dlygate4sd3_1
*CAP
1 *4066:A1 0.000190106
2 *4484:A0 0.000509816
3 *4854:X 3.42433e-05
4 *796:6 0.000734165
5 *4066:A1 *4066:A0 4.78807e-05
6 *4484:A0 *4011:A1 4.99619e-05
7 *4484:A0 *4484:S 8.8266e-05
8 *4484:A0 *4854:A 5.30673e-05
9 *4484:A0 *995:6 0.000164874
10 *3988:A1 *4066:A1 4.82919e-05
11 *4489:D *4066:A1 0
12 *5032:A *4484:A0 8.53113e-06
13 *619:38 *4484:A0 4.81383e-05
14 *619:38 *796:6 5.36384e-06
*RES
1 *4854:X *796:6 2.05 
2 *796:6 *4484:A0 13.31 
3 *796:6 *4066:A1 8.705 
*END

*D_NET *797 0.00285923
*CONN
*I *4084:A0 I *D sky130_fd_sc_hd__mux2_1
*I *4092:A1 I *D sky130_fd_sc_hd__mux2_1
*I *4855:X O *D sky130_fd_sc_hd__dlygate4sd3_1
*CAP
1 *4084:A0 0.000147766
2 *4092:A1 0.000206851
3 *4855:X 0.000235238
4 *797:8 0.000589855
5 *4084:A0 *4084:S 8.65905e-05
6 *4084:A0 *4092:A0 3.67779e-05
7 *4084:A0 *4752:A 0
8 *4084:A0 *1084:25 3.35653e-05
9 *4092:A1 *4076:A0 0.00013611
10 *4092:A1 *4092:A0 0.000107511
11 *4092:A1 *4092:S 2.75229e-05
12 *4092:A1 *4243:B2 0.000313671
13 *4092:A1 *1005:46 0
14 *797:8 *1005:36 0.000347922
15 *4065:A0 *4084:A0 0.000313852
16 *4566:RESET_B *4092:A1 7.89689e-05
17 *704:76 *4084:A0 0.000142265
18 *704:76 *4092:A1 5.47609e-05
*RES
1 *4855:X *797:8 6.81 
2 *797:8 *4092:A1 9.69 
3 *797:8 *4084:A0 8.1 
*END

*D_NET *798 0.000527217
*CONN
*I *4582:D I *D sky130_fd_sc_hd__dfrtp_2
*I *4856:X O *D sky130_fd_sc_hd__dlygate4sd3_1
*CAP
1 *4582:D 0.000168982
2 *4856:X 0.000168982
3 *4065:A0 *4582:D 3.78263e-05
4 *4247:C1 *4582:D 7.23533e-05
5 *627:80 *4582:D 7.90742e-05
*RES
1 *4856:X *4582:D 10.275 
*END

*D_NET *799 0.00332222
*CONN
*I *4453:A0 I *D sky130_fd_sc_hd__mux2_1
*I *4445:A1 I *D sky130_fd_sc_hd__mux2_1
*I *4857:X O *D sky130_fd_sc_hd__dlygate4sd3_1
*CAP
1 *4453:A0 0.000302831
2 *4445:A1 0.000536155
3 *4857:X 6.20704e-05
4 *799:8 0.000901057
5 *4445:A1 *1123:12 0.000198945
6 *4453:A0 *1123:12 0.000118527
7 *4445:S *4445:A1 0.000113247
8 *4453:A1 *4453:A0 8.57024e-05
9 *4453:S *4453:A0 1.61831e-05
10 *4454:A1 *4445:A1 0.000540219
11 *4462:S *4445:A1 1.91597e-05
12 *4669:CLK *4453:A0 0
13 *4826:A *4453:A0 0
14 *4827:A *799:8 0
15 *260:72 *4453:A0 7.76237e-05
16 *260:80 *4453:A0 4.24292e-06
17 *260:80 *799:8 5.42473e-05
18 *629:158 *4453:A0 0
19 *764:12 *4445:A1 0.000198939
20 *764:12 *799:8 9.30717e-05
*RES
1 *4857:X *799:8 5.235 
2 *799:8 *4445:A1 15.21 
3 *799:8 *4453:A0 9.36 
*END

*D_NET *800 0.00301203
*CONN
*I *4072:A1 I *D sky130_fd_sc_hd__mux2_1
*I *4064:A0 I *D sky130_fd_sc_hd__mux2_1
*I *4858:X O *D sky130_fd_sc_hd__dlygate4sd3_1
*CAP
1 *4072:A1 0.000252428
2 *4064:A0 5.92075e-05
3 *4858:X 0.000199085
4 *800:14 0.00051072
5 *4064:A0 *4064:S 6.97118e-05
6 *4072:A1 *1000:24 0.000250249
7 *800:14 *4064:S 4.80285e-05
8 *800:14 *4759:A 0
9 *800:14 *4858:A 2.11084e-05
10 *800:14 *1000:24 0
11 *4072:A0 *4072:A1 5.83121e-06
12 *4080:A1 *4072:A1 5.23362e-05
13 *4555:RESET_B *800:14 1.37864e-05
14 *4558:CLK *800:14 9.66021e-05
15 *4562:RESET_B *4072:A1 0.00027773
16 *4684:RESET_B *4064:A0 0.00016063
17 *4685:RESET_B *4072:A1 0.000132941
18 *701:40 *4072:A1 0.000363164
19 *701:49 *4072:A1 9.30912e-05
20 *701:61 *4064:A0 4.66108e-05
21 *701:61 *800:14 0.00033961
22 *724:12 *4072:A1 1.91597e-05
*RES
1 *4858:X *800:14 10.385 
2 *800:14 *4064:A0 3.43 
3 *800:14 *4072:A1 14.57 
*END

*D_NET *801 0.00162979
*CONN
*I *4451:A0 I *D sky130_fd_sc_hd__mux2_1
*I *4443:A1 I *D sky130_fd_sc_hd__mux2_1
*I *4859:X O *D sky130_fd_sc_hd__dlygate4sd3_1
*CAP
1 *4451:A0 0.000161231
2 *4443:A1 0.000347053
3 *4859:X 0.000143897
4 *801:6 0.00065218
5 *4451:A0 *5010:A 0
6 *4443:S *4443:A1 3.00381e-05
7 *4859:A *4451:A0 0.000295393
8 *260:55 *4451:A0 0
*RES
1 *4859:X *801:6 3.775 
2 *801:6 *4443:A1 6.88 
3 *801:6 *4451:A0 9.275 
*END

*D_NET *802 0.00499782
*CONN
*I *4356:A1 I *D sky130_fd_sc_hd__mux2_1
*I *4860:X O *D sky130_fd_sc_hd__dlygate4sd3_1
*CAP
1 *4356:A1 0.00133502
2 *4860:X 0.00133502
3 *4356:S *4356:A1 5.07419e-05
4 *4440:A *4356:A1 0.000234786
5 *4441:A *4356:A1 0.000293414
6 *4442:A0 *4356:A1 0.00024268
7 *4450:A0 *4356:A1 0
8 *4458:A1 *4356:A1 0.000237249
9 *4458:S *4356:A1 0.000198939
10 *4641:D *4356:A1 4.60584e-05
11 *4860:A *4356:A1 0.000337219
12 *585:37 *4356:A1 0.000141599
13 *722:42 *4356:A1 0.000545085
*RES
1 *4860:X *4356:A1 33.12 
*END

*D_NET *803 0.00207079
*CONN
*I *5070:A I *D sky130_fd_sc_hd__clkdlybuf4s25_1
*I *4900:A I *D sky130_fd_sc_hd__dlygate4sd3_1
*I *4671:Q O *D sky130_fd_sc_hd__dfrtp_2
*CAP
1 *5070:A 0.000135175
2 *4900:A 0.000231373
3 *4671:Q 0.000344784
4 *803:8 0.000711333
5 *803:8 *814:10 0
6 uio_oe[6] *4900:A 0
7 uo_out[5] *803:8 0.000165373
8 uo_out[6] *4900:A 0
9 uo_out[6] *803:8 0
10 *4914:A *803:8 0.000289247
11 *5029:A *4900:A 0.000176974
12 *5029:A *803:8 1.65286e-05
*RES
1 *4671:Q *803:8 11.355 
2 *803:8 *4900:A 7.98 
3 *803:8 *5070:A 5.43 
*END

*D_NET *804 0.000729035
*CONN
*I *4454:A0 I *D sky130_fd_sc_hd__mux2_1
*I *4861:X O *D sky130_fd_sc_hd__dlygate4sd3_1
*CAP
1 *4454:A0 0.000313451
2 *4861:X 0.000313451
3 *4861:A *4454:A0 0
4 *263:51 *4454:A0 0.000102133
*RES
1 *4861:X *4454:A0 11.94 
*END

*D_NET *805 0.00142285
*CONN
*I *4456:A0 I *D sky130_fd_sc_hd__mux2_1
*I *4448:A1 I *D sky130_fd_sc_hd__mux2_1
*I *4862:X O *D sky130_fd_sc_hd__dlygate4sd3_1
*CAP
1 *4456:A0 0.00014477
2 *4448:A1 0.000271043
3 *4862:X 0.000415813
4 *4448:A1 *4399:A1 4.99619e-05
5 *4456:A0 *4399:A1 9.04668e-05
6 *616:99 *4456:A0 2.55342e-05
7 *616:101 *4456:A0 3.98029e-05
8 *616:177 *4456:A0 2.14363e-05
9 *721:35 *4448:A1 0.000317835
10 *721:35 *4456:A0 4.61909e-05
*RES
1 *4862:X *4448:A1 8.825 
2 *4862:X *4456:A0 10.56 
*END

*D_NET *806 0.00226903
*CONN
*I *4465:A0 I *D sky130_fd_sc_hd__mux2_1
*I *4457:A1 I *D sky130_fd_sc_hd__mux2_1
*I *4863:X O *D sky130_fd_sc_hd__dlygate4sd3_1
*CAP
1 *4465:A0 0.000118425
2 *4457:A1 0.000391539
3 *4863:X 0.000184222
4 *806:10 0.000694186
5 *4457:A1 *4457:A0 6.77062e-05
6 *4457:A1 *4664:D 2.75145e-05
7 *4465:A0 *4664:D 4.38051e-05
8 *4465:A0 *1126:16 8.65905e-05
9 *806:10 *4664:D 7.23533e-05
10 *4648:CLK *806:10 1.22505e-05
11 *4656:RESET_B *806:10 4.82863e-05
12 *4664:CLK *4457:A1 2.77183e-05
13 *4664:RESET_B *4465:A0 0.000100162
14 *4664:RESET_B *806:10 0.000250609
15 *4863:A *806:10 3.09179e-05
16 *4864:A *4465:A0 4.65565e-05
17 *616:101 *4465:A0 3.68769e-05
18 *616:103 *4465:A0 1.82476e-05
19 *616:103 *806:10 1.10631e-05
20 *616:111 *806:10 0
*RES
1 *4863:X *806:10 7.65 
2 *806:10 *4457:A1 8.46 
3 *806:10 *4465:A0 6.54 
*END

*D_NET *807 0.00033254
*CONN
*I *4664:D I *D sky130_fd_sc_hd__dfrtp_2
*I *4864:X O *D sky130_fd_sc_hd__dlygate4sd3_1
*CAP
1 *4664:D 6.2058e-05
2 *4864:X 6.2058e-05
3 *4457:A1 *4664:D 2.75145e-05
4 *4465:A0 *4664:D 4.38051e-05
5 *616:103 *4664:D 6.47516e-05
6 *806:10 *4664:D 7.23533e-05
*RES
1 *4864:X *4664:D 9.03 
*END

*D_NET *808 0.00310626
*CONN
*I *4444:A0 I *D sky130_fd_sc_hd__mux2_1
*I *4409:A1 I *D sky130_fd_sc_hd__a22o_2
*I *4865:X O *D sky130_fd_sc_hd__dlygate4sd3_1
*CAP
1 *4444:A0 0.000136914
2 *4409:A1 0.000544888
3 *4865:X 4.45129e-05
4 *808:6 0.000726315
5 *4408:A *4409:A1 1.47256e-05
6 *4409:A2 *4409:A1 1.2818e-05
7 *4444:A1 *4444:A0 4.99619e-05
8 *4627:RESET_B *4409:A1 3.23663e-05
9 *4651:CLK *4444:A0 0.000137578
10 *4731:A *4409:A1 0.000120655
11 *4731:A *4444:A0 3.38982e-05
12 *4731:A *808:6 0.000316421
13 *4865:A *4409:A1 2.49909e-05
14 *4865:A *4444:A0 0.00011852
15 *4865:A *808:6 1.33285e-05
16 *5041:A *4409:A1 0.000122337
17 *262:64 *4409:A1 3.28012e-05
18 *628:10 *4444:A0 0.00017688
19 *628:10 *808:6 8.65961e-05
20 *628:110 *808:6 0.000203178
21 *710:16 *4409:A1 8.23457e-05
22 *720:101 *4444:A0 7.42255e-05
*RES
1 *4865:X *808:6 4.465 
2 *808:6 *4409:A1 10.33 
3 *808:6 *4444:A0 9.98 
*END

*D_NET *809 0.000849947
*CONN
*I *4019:A0 I *D sky130_fd_sc_hd__mux2_1
*I *4866:X O *D sky130_fd_sc_hd__dlygate4sd3_1
*CAP
1 *4019:A0 0.000228489
2 *4866:X 0.000228489
3 *4019:A0 *4486:A0 8.65905e-05
4 *4019:A0 *902:30 0.00030638
5 *4514:D *4019:A0 0
6 *4866:A *4019:A0 0
*RES
1 *4866:X *4019:A0 11.67 
*END

*D_NET *810 0.00035641
*CONN
*I *4025:A0 I *D sky130_fd_sc_hd__mux2_1
*I *4867:X O *D sky130_fd_sc_hd__dlygate4sd3_1
*CAP
1 *4025:A0 0.000113731
2 *4867:X 0.000113731
3 *4025:S *4025:A0 7.1932e-06
4 *4202:B2 *4025:A0 7.39738e-05
5 *4204:A2 *4025:A0 4.77807e-05
6 *660:10 *4025:A0 0
*RES
1 *4867:X *4025:A0 9.285 
*END

*D_NET *811 0.000818443
*CONN
*I *4400:B2 I *D sky130_fd_sc_hd__a22o_2
*I *4868:X O *D sky130_fd_sc_hd__dlygate4sd3_1
*CAP
1 *4400:B2 0.000325337
2 *4868:X 0.000325337
3 *4400:B1 *4400:B2 8.33066e-06
4 *4440:B *4400:B2 1.68162e-05
5 *4868:A *4400:B2 2.99026e-05
6 *4906:A *4400:B2 0.00011272
*RES
1 *4868:X *4400:B2 11.445 
*END

*D_NET *812 0.000714092
*CONN
*I *4020:A0 I *D sky130_fd_sc_hd__mux2_1
*I *4869:X O *D sky130_fd_sc_hd__dlygate4sd3_1
*CAP
1 *4020:A0 0.000222192
2 *4869:X 0.000222192
3 *4020:S *4020:A0 8.65961e-05
4 *4140:A2 *4020:A0 8.00033e-05
5 *4515:D *4020:A0 5.22165e-05
6 *270:131 *4020:A0 5.08934e-05
7 *625:102 *4020:A0 0
*RES
1 *4869:X *4020:A0 11.67 
*END

*D_NET *813 0.00117603
*CONN
*I *4022:A0 I *D sky130_fd_sc_hd__mux2_1
*I *4870:X O *D sky130_fd_sc_hd__dlygate4sd3_1
*CAP
1 *4022:A0 0.000118423
2 *4870:X 0.000118423
3 *4022:A0 *1006:74 0.000451659
4 *4022:A0 *1006:86 4.82863e-05
5 *4022:A0 *1043:59 0.000173964
6 *4689:CLK *4022:A0 0.000265271
*RES
1 *4870:X *4022:A0 7.79 
*END

*D_NET *814 0.00178613
*CONN
*I *5071:A I *D sky130_fd_sc_hd__clkdlybuf4s25_1
*I *4932:A I *D sky130_fd_sc_hd__dlygate4sd3_1
*I *4672:Q O *D sky130_fd_sc_hd__dfrtp_2
*CAP
1 *5071:A 0
2 *4932:A 0.000160391
3 *4672:Q 0.000289128
4 *814:10 0.000449518
5 *4734:A *4932:A 4.93919e-05
6 *5029:A *4932:A 0.000129777
7 *5029:A *814:10 7.17831e-05
8 *721:8 *4932:A 2.49909e-05
9 *721:23 *4932:A 0.000310644
10 *721:23 *814:10 0.000282118
11 *722:32 *4932:A 1.83847e-05
12 *803:8 *814:10 0
*RES
1 *4672:Q *814:10 8.85 
2 *814:10 *4932:A 8.235 
3 *814:10 *5071:A 3.6 
*END

*D_NET *815 0.00066735
*CONN
*I *4023:A0 I *D sky130_fd_sc_hd__mux2_1
*I *4871:X O *D sky130_fd_sc_hd__dlygate4sd3_1
*CAP
1 *4023:A0 0.00030319
2 *4871:X 0.00030319
3 *4023:A0 *3995:A1 1.4399e-05
4 *4023:A0 *4518:RESET_B 0
5 *4023:A0 *1018:101 8.66541e-06
6 *4023:S *4023:A0 7.96104e-06
7 *4236:A *4023:A0 0
8 *4848:A *4023:A0 0
9 *266:34 *4023:A0 0
10 *634:16 *4023:A0 2.99445e-05
*RES
1 *4871:X *4023:A0 11.325 
*END

*D_NET *816 0.00125997
*CONN
*I *4041:A1 I *D sky130_fd_sc_hd__mux2_1
*I *4872:X O *D sky130_fd_sc_hd__dlygate4sd3_1
*CAP
1 *4041:A1 0.000266558
2 *4872:X 0.000266558
3 *4041:A1 *4689:RESET_B 0.000118504
4 *4041:A1 *994:50 1.34361e-05
5 *4041:A1 *1034:14 0.00027299
6 *4041:A1 *1035:39 4.65565e-05
7 *4043:S *4041:A1 0.000275369
*RES
1 *4872:X *4041:A1 13.14 
*END

*D_NET *817 0.00230172
*CONN
*I *4443:A0 I *D sky130_fd_sc_hd__mux2_1
*I *4402:A1 I *D sky130_fd_sc_hd__mux2_1
*I *4873:X O *D sky130_fd_sc_hd__dlygate4sd3_1
*CAP
1 *4443:A0 0.000180737
2 *4402:A1 0.000144683
3 *4873:X 9.71321e-05
4 *817:8 0.000422553
5 *4443:S *4402:A1 0.000163012
6 *4443:S *4443:A0 0.000387168
7 *4634:RESET_B *817:8 8.73389e-06
8 *4642:D *4402:A1 9.55787e-05
9 *4642:D *4443:A0 0.000194523
10 *4873:A *817:8 4.80285e-05
11 *259:29 *4402:A1 0.000394699
12 *628:42 *4402:A1 0.000164874
13 *628:50 *4402:A1 0
*RES
1 *4873:X *817:8 4.74 
2 *817:8 *4402:A1 9.045 
3 *817:8 *4443:A0 9 
*END

*D_NET *818 0.0020897
*CONN
*I *4227:A1 I *D sky130_fd_sc_hd__mux2_1
*I *4874:X O *D sky130_fd_sc_hd__dlygate4sd3_1
*CAP
1 *4227:A1 0.000339983
2 *4874:X 0.000339983
3 *4227:A1 *4416:A 2.11084e-05
4 *4400:A2 *4227:A1 0
5 *4400:B1 *4227:A1 0.000213507
6 *4621:D *4227:A1 1.94723e-05
7 *4621:RESET_B *4227:A1 7.89767e-05
8 *261:37 *4227:A1 0.000116158
9 *581:6 *4227:A1 0.000386221
10 *581:21 *4227:A1 0.000223804
11 *615:122 *4227:A1 0.000350486
*RES
1 *4874:X *4227:A1 17.955 
*END

*D_NET *819 0.00146792
*CONN
*I *4099:A1 I *D sky130_fd_sc_hd__mux2_1
*I *4091:A0 I *D sky130_fd_sc_hd__mux2_1
*I *4875:X O *D sky130_fd_sc_hd__dlygate4sd3_1
*CAP
1 *4099:A1 0.000100557
2 *4091:A0 0.000419111
3 *4875:X 0.000519669
4 *4091:A0 *4107:A1 8.41307e-05
5 *4091:A0 *4214:A1 0.00017263
6 *4091:A0 *4605:RESET_B 1.91597e-05
7 *4091:A0 *993:35 1.19928e-05
8 *4091:A0 *993:37 4.48373e-06
9 *4091:A0 *993:43 0
10 *4091:A0 *1091:23 3.67779e-05
11 *4099:A1 *4099:A0 6.60907e-06
12 *4099:A1 *4099:S 9.28013e-05
*RES
1 *4875:X *4091:A0 14.16 
2 *4875:X *4099:A1 9.03 
*END

*D_NET *820 0.00117808
*CONN
*I *4589:D I *D sky130_fd_sc_hd__dfrtp_2
*I *4876:X O *D sky130_fd_sc_hd__dlygate4sd3_1
*CAP
1 *4589:D 0.00034406
2 *4876:X 0.00034406
3 *4589:D *4099:A0 0
4 *4589:D *4107:A0 7.23533e-05
5 *4589:D *4211:C 0
6 *4589:D *4212:A2 9.38785e-05
7 *4589:D *4597:D 7.23602e-05
8 *4589:CLK *4589:D 0.000136877
9 *4597:CLK *4589:D 0.000114492
*RES
1 *4876:X *4589:D 13.995 
*END

*D_NET *821 0.000511382
*CONN
*I *4003:A0 I *D sky130_fd_sc_hd__mux2_1
*I *4877:X O *D sky130_fd_sc_hd__dlygate4sd3_1
*CAP
1 *4003:A0 4.20032e-05
2 *4877:X 4.20032e-05
3 *4005:S *4003:A0 6.52265e-05
4 *267:62 *4003:A0 0.0001249
5 *622:57 *4003:A0 0.000237249
*RES
1 *4877:X *4003:A0 5.375 
*END

*D_NET *822 0.00030164
*CONN
*I *4012:A0 I *D sky130_fd_sc_hd__mux2_1
*I *4878:X O *D sky130_fd_sc_hd__dlygate4sd3_1
*CAP
1 *4012:A0 9.55469e-05
2 *4878:X 9.55469e-05
3 *4012:A0 *4012:A1 3.00381e-05
4 *4012:A0 *994:69 2.7441e-05
5 *4012:S *4012:A0 5.30673e-05
*RES
1 *4878:X *4012:A0 5.03 
*END

*D_NET *823 0.000426048
*CONN
*I *3996:A0 I *D sky130_fd_sc_hd__mux2_1
*I *4879:X O *D sky130_fd_sc_hd__dlygate4sd3_1
*CAP
1 *3996:A0 6.78295e-05
2 *4879:X 6.78295e-05
3 *3996:A0 *3996:A1 4.82863e-05
4 *3996:S *3996:A0 1.91597e-05
5 *4281:A1 *3996:A0 0.000119756
6 *4286:B1 *3996:A0 1.91597e-05
7 *4879:A *3996:A0 8.40269e-05
*RES
1 *4879:X *3996:A0 5.03 
*END

*D_NET *824 0.000674319
*CONN
*I *4002:A0 I *D sky130_fd_sc_hd__mux2_1
*I *4880:X O *D sky130_fd_sc_hd__dlygate4sd3_1
*CAP
1 *4002:A0 0.000188244
2 *4880:X 0.000188244
3 *4002:A0 *4177:A2 2.41307e-05
4 *273:94 *4002:A0 0.000234763
5 *612:12 *4002:A0 3.89366e-05
*RES
1 *4880:X *4002:A0 10.245 
*END

*D_NET *825 0.00183872
*CONN
*I *5072:A I *D sky130_fd_sc_hd__clkdlybuf4s25_1
*I *4930:A I *D sky130_fd_sc_hd__dlygate4sd3_1
*I *4673:Q O *D sky130_fd_sc_hd__dfrtp_2
*CAP
1 *5072:A 0.000137466
2 *4930:A 0.000492909
3 *4673:Q 0.000355443
4 *4930:A *4474:A1 0
5 uo_out[7] *4930:A 5.30673e-05
6 uo_out[7] *5072:A 0.000509612
7 *4441:B *4930:A 0
8 *4458:A0 *4930:A 0
9 *4657:D *4930:A 0.000142548
10 *4657:D *5072:A 2.11084e-05
11 *4801:A *4930:A 0
12 *4801:A *5072:A 0.00012657
*RES
1 *4673:Q *4930:A 13.455 
2 *4930:A *5072:A 7.79 
*END

*D_NET *826 0.00221097
*CONN
*I *4432:A1 I *D sky130_fd_sc_hd__mux2_1
*I *4448:A0 I *D sky130_fd_sc_hd__mux2_1
*I *4881:X O *D sky130_fd_sc_hd__dlygate4sd3_1
*CAP
1 *4432:A1 0.000375532
2 *4448:A0 0.000176791
3 *4881:X 0.000269941
4 *826:10 0.000822264
5 *4432:A1 *4397:A1 3.51927e-05
6 *4647:CLK *4432:A1 0.000134515
7 *4881:A *826:10 0.000131584
8 *259:58 *4448:A0 0.000148783
9 *259:58 *826:10 9.73988e-05
10 *259:60 *4448:A0 1.89685e-05
*RES
1 *4881:X *826:10 7.92 
2 *826:10 *4448:A0 7.275 
3 *826:10 *4432:A1 8.19 
*END

*D_NET *827 0.00110458
*CONN
*I *3998:A0 I *D sky130_fd_sc_hd__mux2_1
*I *4882:X O *D sky130_fd_sc_hd__dlygate4sd3_1
*CAP
1 *3998:A0 0.000402957
2 *4882:X 0.000402957
3 *4369:C1 *3998:A0 0.000298666
4 *4497:RESET_B *3998:A0 0
*RES
1 *4882:X *3998:A0 12.66 
*END

*D_NET *828 0.000556034
*CONN
*I *4467:A1 I *D sky130_fd_sc_hd__mux2_1
*I *4883:X O *D sky130_fd_sc_hd__dlygate4sd3_1
*CAP
1 *4467:A1 0.000243603
2 *4883:X 0.000243603
3 uio_out[2] *4467:A1 1.88656e-05
4 *4884:A *4467:A1 4.99619e-05
5 *5066:A *4467:A1 0
*RES
1 *4883:X *4467:A1 10.86 
*END

*D_NET *829 0.000412606
*CONN
*I *4666:D I *D sky130_fd_sc_hd__dfrtp_2
*I *4884:X O *D sky130_fd_sc_hd__dlygate4sd3_1
*CAP
1 *4666:D 0.000206303
2 *4884:X 0.000206303
3 *4467:S *4666:D 0
4 *4884:A *4666:D 0
*RES
1 *4884:X *4666:D 10.365 
*END

*D_NET *830 0.000846029
*CONN
*I *4005:A0 I *D sky130_fd_sc_hd__mux2_1
*I *4885:X O *D sky130_fd_sc_hd__dlygate4sd3_1
*CAP
1 *4005:A0 0.000364686
2 *4885:X 0.000364686
3 *4285:A1 *4005:A0 0
4 *4885:A *4005:A0 0
5 *4886:A *4005:A0 0.000116656
6 *624:12 *4005:A0 0
*RES
1 *4885:X *4005:A0 12.705 
*END

*D_NET *831 0.00128281
*CONN
*I *4052:A1 I *D sky130_fd_sc_hd__mux2_1
*I *4886:X O *D sky130_fd_sc_hd__dlygate4sd3_1
*CAP
1 *4052:A1 0.00053854
2 *4886:X 0.00053854
3 *4052:A1 *4519:RESET_B 0.000205735
4 *4282:A2 *4052:A1 0
5 *4519:D *4052:A1 0
6 *4924:A *4052:A1 0
*RES
1 *4886:X *4052:A1 15.18 
*END

*D_NET *832 0.00182828
*CONN
*I *4398:B2 I *D sky130_fd_sc_hd__a22o_2
*I *4887:X O *D sky130_fd_sc_hd__dlygate4sd3_1
*CAP
1 *4398:B2 0.000594061
2 *4887:X 0.000594061
3 *4398:B2 *4397:A2 0.000131578
4 *4398:B2 *4399:B1 0.000366977
5 *4398:B2 *836:75 0
6 *4430:B1_N *4398:B2 0.000141599
7 *4631:CLK *4398:B2 0
8 *615:51 *4398:B2 0
9 *615:59 *4398:B2 0
*RES
1 *4887:X *4398:B2 18.975 
*END

*D_NET *833 0.00216615
*CONN
*I *3982:A1 I *D sky130_fd_sc_hd__a21bo_2
*I *4888:X O *D sky130_fd_sc_hd__dlygate4sd3_1
*CAP
1 *3982:A1 0.000836416
2 *4888:X 0.000836416
3 *3982:A1 *3968:C 9.23967e-05
4 *3982:A1 *1052:21 4.47209e-05
5 *3982:B1_N *3982:A1 6.03947e-06
6 *3984:B1_N *3982:A1 3.72843e-05
7 *4679:CLK *3982:A1 4.36234e-05
8 *4679:D *3982:A1 0.000201508
9 *251:43 *3982:A1 6.77417e-05
*RES
1 *4888:X *3982:A1 14.495 
*END

*D_NET *834 0.00042607
*CONN
*I *3997:A0 I *D sky130_fd_sc_hd__mux2_1
*I *4889:X O *D sky130_fd_sc_hd__dlygate4sd3_1
*CAP
1 *3997:A0 9.34748e-05
2 *4889:X 9.34748e-05
3 *3997:A0 *3997:A1 4.66108e-05
4 *3997:A0 *1037:12 0.000192509
*RES
1 *4889:X *3997:A0 5.03 
*END

*D_NET *835 0.00116515
*CONN
*I *4457:A0 I *D sky130_fd_sc_hd__mux2_1
*I *4890:X O *D sky130_fd_sc_hd__dlygate4sd3_1
*CAP
1 *4457:A0 0.000450314
2 *4890:X 0.000450314
3 *4457:A1 *4457:A0 6.77062e-05
4 *4457:S *4457:A0 2.24336e-05
5 *4648:D *4457:A0 0.000148968
6 *4656:D *4457:A0 0
7 *4890:A *4457:A0 0
8 *601:12 *4457:A0 0
9 *616:103 *4457:A0 0
10 *616:111 *4457:A0 2.54152e-05
11 *715:10 *4457:A0 0
*RES
1 *4890:X *4457:A0 15.6 
*END

*D_NET *836 0.0215913
*CONN
*I *4476:C I *D sky130_fd_sc_hd__or3_2
*I *4475:B1 I *D sky130_fd_sc_hd__a21o_2
*I *4395:B1 I *D sky130_fd_sc_hd__a22o_2
*I *4396:B1 I *D sky130_fd_sc_hd__a22o_2
*I *4397:B1 I *D sky130_fd_sc_hd__a22o_2
*I *4398:B1 I *D sky130_fd_sc_hd__a22o_2
*I *4399:B1 I *D sky130_fd_sc_hd__a22o_2
*I *4394:B1 I *D sky130_fd_sc_hd__a22o_2
*I *4393:B1 I *D sky130_fd_sc_hd__a22o_2
*I *4478:D I *D sky130_fd_sc_hd__or4_2
*I *4739:X O *D sky130_fd_sc_hd__clkdlybuf4s25_1
*CAP
1 *4476:C 0.00083487
2 *4475:B1 0
3 *4395:B1 0
4 *4396:B1 8.30137e-05
5 *4397:B1 0.000723985
6 *4398:B1 8.01058e-05
7 *4399:B1 0.000513526
8 *4394:B1 3.92435e-05
9 *4393:B1 0.000373934
10 *4478:D 0.000277553
11 *4739:X 0.000923938
12 *836:103 0.00112905
13 *836:75 0.000653245
14 *836:73 0.0007046
15 *836:71 0.000830083
16 *836:56 0.000747683
17 *836:39 0.00322504
18 *836:23 0.0026701
19 *836:8 0.000386903
20 *4393:B1 *4393:A1 2.11084e-05
21 *4393:B1 *4393:A2 0.000301799
22 *4397:B1 *4397:A1 5.31158e-06
23 *4397:B1 *4397:A2 4.89395e-05
24 *4398:B1 *4398:A1 3.95724e-05
25 *4399:B1 *4399:A2 0.000265206
26 *4399:B1 *4399:B2 5.31158e-06
27 *4399:B1 *980:109 0.000354539
28 *4476:C *1004:46 0.00073477
29 *4476:C *1004:60 1.61831e-05
30 *4476:C *1129:10 0.000162311
31 *4478:D *4478:B 5.07419e-05
32 *4478:D *4481:A 0
33 *4478:D *980:12 0.000164352
34 *4478:D *1004:10 0
35 *836:8 *1004:10 0
36 *836:39 *980:54 7.06865e-05
37 *836:56 *4394:B2 1.56428e-05
38 *836:71 *4394:A1 6.52265e-05
39 *836:71 *4395:B2 7.81876e-05
40 *836:71 *980:77 3.1638e-05
41 *836:71 *980:88 0.000572462
42 *836:73 *4395:B2 5.53249e-06
43 *836:73 *980:101 0.000515106
44 *836:73 *980:103 0.000126679
45 *836:75 *980:103 7.30547e-05
46 *836:75 *980:109 4.44927e-05
47 *3974:B *836:8 0
48 *3976:B1_N *4393:B1 0
49 *3981:A *836:39 0.000173258
50 *3982:B1_N *836:39 0.000250093
51 *4151:S *836:39 0.000653462
52 *4396:B2 *4396:B1 5.53249e-06
53 *4398:B2 *4399:B1 0.000366977
54 *4398:B2 *836:75 0
55 *4400:A2 *836:39 0.000138799
56 *4408:A *4393:B1 0
57 *4421:B *4397:B1 5.00699e-05
58 *4422:B *4397:B1 9.78734e-05
59 *4430:B1_N *4399:B1 7.89689e-05
60 *4431:B *4399:B1 0.000315479
61 *4458:S *4397:B1 0
62 *4475:A1 *836:8 0
63 *4475:A1 *836:39 5.062e-06
64 *4475:A2 *4478:D 0
65 *4475:A2 *836:39 5.07419e-05
66 *4626:D *4393:B1 2.92826e-05
67 *4627:D *836:71 0.000119631
68 *4628:RESET_B *836:73 0
69 *4630:RESET_B *4397:B1 0
70 *4631:CLK *4399:B1 0
71 *4675:CLK *4476:C 0
72 *4680:CLK *836:39 3.89982e-05
73 *4732:A *4396:B1 5.42473e-05
74 *4732:A *4397:B1 0
75 *5002:A *836:73 0
76 *5005:A *4397:B1 0.000132866
77 *5013:A *836:73 0
78 *254:14 *836:39 2.06083e-05
79 *259:8 *4393:B1 0
80 *259:29 *4393:B1 0.000160641
81 *261:10 *836:39 8.53113e-06
82 *262:60 *836:71 0
83 *537:12 *4393:B1 2.97291e-05
84 *552:18 *4396:B1 0
85 *552:18 *4397:B1 0.000208491
86 *572:10 *4393:B1 4.19967e-05
87 *572:12 *4393:B1 4.62478e-05
88 *580:21 *836:39 8.35727e-05
89 *615:16 *4397:B1 0
90 *615:51 *4397:B1 0.000188727
91 *615:51 *4398:B1 1.34594e-05
92 *615:51 *836:75 0
93 *615:51 *836:103 0.000262227
*RES
1 *4739:X *836:8 4.98 
2 *836:8 *4478:D 8.52 
3 *836:8 *836:23 2.45 
4 *836:23 *836:39 37.63 
5 *836:39 *4393:B1 14.33 
6 *836:39 *836:56 2.445 
7 *836:56 *4394:B1 2.41 
8 *836:56 *836:71 14.075 
9 *836:71 *836:73 7.5 
10 *836:73 *836:75 1.38 
11 *836:75 *4399:B1 18.12 
12 *836:75 *4398:B1 4.755 
13 *836:73 *836:103 6.245 
14 *836:103 *4397:B1 19.31 
15 *836:103 *4396:B1 7.235 
16 *836:71 *4395:B1 3.6 
17 *836:23 *4475:B1 1.6 
18 *4739:X *4476:C 19.755 
*END

*D_NET *837 0.0031141
*CONN
*I *4415:A1 I *D sky130_fd_sc_hd__mux2_1
*I *4445:A0 I *D sky130_fd_sc_hd__mux2_1
*I *4891:X O *D sky130_fd_sc_hd__dlygate4sd3_1
*CAP
1 *4415:A1 0.00049528
2 *4445:A0 0
3 *4891:X 0.000235647
4 *837:10 0.000730927
5 *837:10 *4396:A1 9.36526e-05
6 *4415:A0 *4415:A1 1.83756e-05
7 *4707:A *4415:A1 0.000177857
8 *4891:A *4415:A1 0.000308969
9 *4891:A *837:10 0.000117832
10 *259:54 *4415:A1 0.000200751
11 *259:54 *837:10 0
12 *259:56 *837:10 0
13 *262:56 *4415:A1 4.82863e-05
14 *262:105 *4415:A1 0.00042453
15 *629:6 *4415:A1 8.8266e-05
16 *629:25 *4415:A1 0.000173722
*RES
1 *4891:X *837:10 7.155 
2 *837:10 *4445:A0 3.6 
3 *837:10 *4415:A1 17.175 
*END

*D_NET *838 7.71901e-05
*CONN
*I *4394:B2 I *D sky130_fd_sc_hd__a22o_2
*I *4892:X O *D sky130_fd_sc_hd__dlygate4sd3_1
*CAP
1 *4394:B2 3.07736e-05
2 *4892:X 3.07736e-05
3 *836:56 *4394:B2 1.56428e-05
*RES
1 *4892:X *4394:B2 3.65 
*END

*D_NET *839 0.000496153
*CONN
*I *3984:A1 I *D sky130_fd_sc_hd__a21bo_2
*I *4893:X O *D sky130_fd_sc_hd__dlygate4sd3_1
*CAP
1 *3984:A1 0.000131682
2 *4893:X 0.000131682
3 *3984:A1 *4893:A 5.30673e-05
4 *3984:A1 *1051:25 2.75229e-05
5 *3977:A *3984:A1 1.47256e-05
6 *260:10 *3984:A1 4.92062e-05
7 *260:55 *3984:A1 8.8266e-05
*RES
1 *4893:X *3984:A1 6.185 
*END

*D_NET *840 0.00129605
*CONN
*I *4032:A1 I *D sky130_fd_sc_hd__mux2_1
*I *4894:X O *D sky130_fd_sc_hd__dlygate4sd3_1
*CAP
1 *4032:A1 0.000598808
2 *4894:X 0.000598808
3 *4032:A1 *4509:RESET_B 0
4 *4032:A1 *1006:12 0
5 *4202:A1 *4032:A1 3.70009e-05
6 *4894:A *4032:A1 5.05521e-05
7 *619:104 *4032:A1 1.08758e-05
*RES
1 *4894:X *4032:A1 15.42 
*END

*D_NET *841 0.00300851
*CONN
*I *4106:A1 I *D sky130_fd_sc_hd__mux2_1
*I *4098:A0 I *D sky130_fd_sc_hd__mux2_1
*I *4895:X O *D sky130_fd_sc_hd__dlygate4sd3_1
*CAP
1 *4106:A1 0.000121424
2 *4098:A0 0.000664743
3 *4895:X 0
4 *841:4 0.000786167
5 *4098:A0 *4090:S 7.36568e-05
6 *4098:A0 *4106:S 7.83773e-05
7 *4098:A0 *4180:A_N 0.000137578
8 *4098:A0 *4183:A2 0.000106655
9 *4098:A0 *4596:D 0
10 *4098:A0 *1021:139 0.000201627
11 *4098:A0 *1082:23 0.000183043
12 *4106:A1 *4106:A0 4.99619e-05
13 *4106:A1 *4106:S 9.93004e-05
14 *4564:RESET_B *4098:A0 4.05358e-05
15 *702:8 *4098:A0 1.56428e-05
16 *702:14 *4098:A0 0
17 *722:77 *4098:A0 0.000449803
*RES
1 *4895:X *841:4 1.6 
2 *841:4 *4098:A0 19.775 
3 *841:4 *4106:A1 4.135 
*END

*D_NET *842 0.000533226
*CONN
*I *4596:D I *D sky130_fd_sc_hd__dfrtp_2
*I *4896:X O *D sky130_fd_sc_hd__dlygate4sd3_1
*CAP
1 *4596:D 0.000266613
2 *4896:X 0.000266613
3 *4098:A0 *4596:D 0
4 *4564:RESET_B *4596:D 0
5 *4896:A *4596:D 0
6 *702:14 *4596:D 0
*RES
1 *4896:X *4596:D 10.815 
*END

*D_NET *843 0.000353051
*CONN
*I *4463:A0 I *D sky130_fd_sc_hd__mux2_1
*I *4897:X O *D sky130_fd_sc_hd__dlygate4sd3_1
*CAP
1 *4463:A0 0.000109492
2 *4897:X 0.000109492
3 *4463:A0 *4463:A1 3.00381e-05
4 *4463:S *4463:A0 2.16833e-05
5 *4670:CLK *4463:A0 8.23457e-05
*RES
1 *4897:X *4463:A0 5.03 
*END

*D_NET *844 0.00121652
*CONN
*I *4662:D I *D sky130_fd_sc_hd__dfrtp_2
*I *4898:X O *D sky130_fd_sc_hd__dlygate4sd3_1
*CAP
1 *4662:D 0.000236523
2 *4898:X 0.000236523
3 *4662:D *4463:A1 0
4 *4662:D *1124:12 0.00011964
5 *4455:A1 *4662:D 2.96334e-05
6 *4662:CLK *4662:D 0.000165845
7 *4670:CLK *4662:D 8.79662e-05
8 *260:80 *4662:D 0.000136884
9 *260:93 *4662:D 0.000203501
*RES
1 *4898:X *4662:D 14.745 
*END

*D_NET *845 0.00179873
*CONN
*I *4035:A1 I *D sky130_fd_sc_hd__mux2_1
*I *4899:X O *D sky130_fd_sc_hd__dlygate4sd3_1
*CAP
1 *4035:A1 0.000513344
2 *4899:X 0.000513344
3 *4035:A1 *4784:A 0
4 *4035:A1 *5052:A 0.000124005
5 *4035:A1 *1036:14 6.55328e-05
6 *4035:A1 *1043:20 9.00872e-05
7 *4332:C *4035:A1 9.69048e-05
8 *4512:D *4035:A1 7.23602e-05
9 *4835:A *4035:A1 3.42142e-05
10 *4899:A *4035:A1 0.000137723
11 *668:10 *4035:A1 0.000151219
*RES
1 *4899:X *4035:A1 16.815 
*END

*D_NET *846 0.00291882
*CONN
*I *4472:A1 I *D sky130_fd_sc_hd__mux2_1
*I *4900:X O *D sky130_fd_sc_hd__dlygate4sd3_1
*CAP
1 *4472:A1 0.000478502
2 *4900:X 0.000478502
3 *4472:A1 *4472:A0 0.000291942
4 *4472:A1 *4473:A1 0.000243999
5 *4473:S *4472:A1 3.48914e-05
6 *4901:A *4472:A1 0.000983023
7 *4933:A *4472:A1 7.00889e-06
8 *715:38 *4472:A1 0.000148688
9 *715:45 *4472:A1 0.000194748
10 *715:55 *4472:A1 1.0397e-05
11 *721:23 *4472:A1 4.71162e-05
*RES
1 *4900:X *4472:A1 22.305 
*END

*D_NET *847 0.0110196
*CONN
*I *4377:B I *D sky130_fd_sc_hd__or2_2
*I *4319:A2 I *D sky130_fd_sc_hd__o22a_2
*I *4274:B I *D sky130_fd_sc_hd__nor2_2
*I *5089:X O *D sky130_fd_sc_hd__clkbuf_2
*CAP
1 *4377:B 0.000192418
2 *4319:A2 0
3 *4274:B 0.000199926
4 *5089:X 0.00271325
5 *847:39 0.000289201
6 *847:26 0.000375532
7 *847:22 0.00279207
8 *4377:B *914:12 0.000106655
9 *847:22 *4182:B 0.000907192
10 *847:22 *4186:B2 0.000231815
11 *847:22 *4361:B2 8.43466e-05
12 *847:22 *4365:B1 8.73345e-05
13 *847:22 *4367:B1 0.000240211
14 *847:22 *5054:A 0.000380118
15 *847:22 *983:30 0.00112095
16 *847:22 *988:31 0.000237358
17 *847:22 *1005:74 0.000199035
18 *847:22 *1049:23 5.61284e-05
19 *847:39 *914:12 3.05811e-05
20 *4045:A0 *847:22 2.49909e-05
21 *4274:A *4274:B 0.000161474
22 *4274:A *847:39 8.14511e-05
23 *4320:A2 *847:22 4.8854e-05
24 *4320:A2 *847:26 7.58382e-05
25 *4320:A2 *847:39 6.69392e-05
26 *4320:B1 *847:39 0
27 *4372:A *4377:B 3.84331e-05
28 *4372:A *847:39 2.14995e-05
29 *4384:A *4377:B 7.27003e-05
30 *4537:D *847:22 4.89395e-05
31 *4911:A *847:22 0.000106572
32 *289:49 *4377:B 1.59888e-05
33 *289:49 *847:39 1.18308e-05
*RES
1 *5089:X *847:22 49.105 
2 *847:22 *847:26 3.635 
3 *847:26 *4274:B 6.825 
4 *847:26 *847:39 2.4 
5 *847:39 *4319:A2 3.6 
6 *847:39 *4377:B 7.335 
*END

*D_NET *848 0.00172991
*CONN
*I *4671:D I *D sky130_fd_sc_hd__dfrtp_2
*I *4901:X O *D sky130_fd_sc_hd__dlygate4sd3_1
*CAP
1 *4671:D 0.00040297
2 *4901:X 0.00040297
3 *4671:D *4672:D 8.65983e-05
4 *4671:D *1125:14 3.14077e-05
5 *4671:D *1126:12 9.37731e-05
6 uio_oe[5] *4671:D 2.42236e-05
7 uio_out[4] *4671:D 1.96981e-05
8 *4840:A *4671:D 0.000113222
9 *4933:A *4671:D 0.000112685
10 *715:38 *4671:D 9.77561e-05
11 *715:45 *4671:D 6.06356e-05
12 *721:100 *4671:D 0.000283968
*RES
1 *4901:X *4671:D 17.895 
*END

*D_NET *849 0.00541333
*CONN
*I *4074:A1 I *D sky130_fd_sc_hd__mux2_1
*I *4066:A0 I *D sky130_fd_sc_hd__mux2_1
*I *4902:X O *D sky130_fd_sc_hd__dlygate4sd3_1
*CAP
1 *4074:A1 0.00119828
2 *4066:A0 0.000443639
3 *4902:X 0
4 *849:4 0.00164192
5 *4066:A0 *4787:A 1.65105e-05
6 *4066:A0 *1058:12 0.000245953
7 *4074:A1 *4074:A0 2.10905e-05
8 *4074:A1 *4103:S 0.000235382
9 *4074:A1 *4185:A1 0.0011705
10 *4074:A1 *4577:D 8.35118e-05
11 *4074:A1 *1058:12 7.38695e-05
12 *3988:A1 *4066:A0 3.87723e-05
13 *4066:A1 *4066:A0 4.78807e-05
14 *4368:B1 *4074:A1 8.35157e-05
15 *4489:D *4066:A0 4.43871e-06
16 *4556:D *4066:A0 0
17 *4588:D *4074:A1 1.08758e-05
18 *4996:A *4074:A1 8.52972e-05
19 *653:10 *4066:A0 0
20 *722:77 *4074:A1 1.19028e-05
*RES
1 *4902:X *849:4 1.6 
2 *849:4 *4066:A0 12.965 
3 *849:4 *4074:A1 22.54 
*END

*D_NET *850 0.000233333
*CONN
*I *4061:A1 I *D sky130_fd_sc_hd__mux2_1
*I *4903:X O *D sky130_fd_sc_hd__dlygate4sd3_1
*CAP
1 *4061:A1 6.90342e-05
2 *4903:X 6.90342e-05
3 *273:38 *4061:A1 9.52646e-05
*RES
1 *4903:X *4061:A1 4.685 
*END

*D_NET *851 0.000896476
*CONN
*I *4044:A1 I *D sky130_fd_sc_hd__mux2_1
*I *4904:X O *D sky130_fd_sc_hd__dlygate4sd3_1
*CAP
1 *4044:A1 0.0002833
2 *4904:X 0.0002833
3 *4044:A1 *4268:B1 2.27064e-05
4 *4044:A1 *985:99 3.72081e-05
5 *4044:S *4044:A1 0.000269962
*RES
1 *4904:X *4044:A1 11.28 
*END

*D_NET *852 0.000871861
*CONN
*I *4466:A0 I *D sky130_fd_sc_hd__mux2_1
*I *4905:X O *D sky130_fd_sc_hd__dlygate4sd3_1
*CAP
1 *4466:A0 0.000233281
2 *4905:X 0.000233281
3 *4466:A0 *1127:19 4.99619e-05
4 *4458:A0 *4466:A0 7.72197e-05
5 *4466:S *4466:A0 0
6 *4649:RESET_B *4466:A0 0.000278117
*RES
1 *4905:X *4466:A0 12.39 
*END

*D_NET *853 0.000751032
*CONN
*I *4665:D I *D sky130_fd_sc_hd__dfrtp_2
*I *4906:X O *D sky130_fd_sc_hd__dlygate4sd3_1
*CAP
1 *4665:D 0.000198011
2 *4906:X 0.000198011
3 *4356:S *4665:D 5.36524e-05
4 *4633:CLK *4665:D 6.94138e-05
5 *261:55 *4665:D 0.000231943
*RES
1 *4906:X *4665:D 11.415 
*END

*D_NET *854 0.00127779
*CONN
*I *4393:B2 I *D sky130_fd_sc_hd__a22o_2
*I *4907:X O *D sky130_fd_sc_hd__dlygate4sd3_1
*CAP
1 *4393:B2 0.000437398
2 *4907:X 0.000437398
3 *4401:A *4393:B2 0
4 *4401:B *4393:B2 0
5 *4626:D *4393:B2 4.40812e-05
6 *260:55 *4393:B2 0.000354725
7 *571:40 *4393:B2 4.18603e-06
*RES
1 *4907:X *4393:B2 14.085 
*END

*D_NET *855 0.00102223
*CONN
*I *4045:A1 I *D sky130_fd_sc_hd__mux2_1
*I *4908:X O *D sky130_fd_sc_hd__dlygate4sd3_1
*CAP
1 *4045:A1 0.000399228
2 *4908:X 0.000399228
3 *273:86 *4045:A1 0.000103464
4 *273:94 *4045:A1 9.12494e-06
5 *677:6 *4045:A1 4.90227e-05
6 *696:48 *4045:A1 6.21647e-05
*RES
1 *4908:X *4045:A1 12.48 
*END

*D_NET *856 0.0013984
*CONN
*I *4074:A0 I *D sky130_fd_sc_hd__mux2_1
*I *4082:A1 I *D sky130_fd_sc_hd__mux2_1
*I *4909:X O *D sky130_fd_sc_hd__dlygate4sd3_1
*CAP
1 *4074:A0 0.000182074
2 *4082:A1 0.000201495
3 *4909:X 0
4 *856:6 0.000383568
5 *4074:A0 *4185:A1 0.000345002
6 *4082:A1 *985:24 0
7 *4082:A1 *997:12 3.72916e-05
8 *4082:A1 *997:14 4.9253e-06
9 *4074:A1 *4074:A0 2.10905e-05
10 *722:77 *4074:A0 0.000222951
*RES
1 *4909:X *856:6 3.6 
2 *856:6 *4082:A1 6.54 
3 *856:6 *4074:A0 8.79 
*END

*D_NET *857 0.000557369
*CONN
*I *4030:A1 I *D sky130_fd_sc_hd__mux2_1
*I *4910:X O *D sky130_fd_sc_hd__dlygate4sd3_1
*CAP
1 *4030:A1 0.000161345
2 *4910:X 0.000161345
3 *4030:A1 *4155:A1 0.00023468
*RES
1 *4910:X *4030:A1 5.375 
*END

*D_NET *858 0.00779669
*CONN
*I *4289:C I *D sky130_fd_sc_hd__or4b_2
*I *4206:C I *D sky130_fd_sc_hd__nor3_2
*I *4207:B1 I *D sky130_fd_sc_hd__o22a_2
*I *4205:B I *D sky130_fd_sc_hd__nor2_2
*I *4239:A2_N I *D sky130_fd_sc_hd__a2bb2o_2
*I *4290:A2_N I *D sky130_fd_sc_hd__a2bb2o_2
*I *4326:B I *D sky130_fd_sc_hd__or4b_2
*I *5056:X O *D sky130_fd_sc_hd__clkbuf_2
*CAP
1 *4289:C 2.58254e-05
2 *4206:C 7.41376e-05
3 *4207:B1 4.4988e-05
4 *4205:B 1.77753e-05
5 *4239:A2_N 0
6 *4290:A2_N 0
7 *4326:B 0
8 *5056:X 0.000461017
9 *858:64 0.000476575
10 *858:55 0.000644025
11 *858:47 0.000352686
12 *858:38 0.000139937
13 *858:27 0.000893352
14 *858:10 0.00127249
15 *4206:C *925:27 1.91597e-05
16 *4207:B1 *925:14 0.000185405
17 *858:10 *4324:A 0.00023603
18 *858:27 *4288:A 0
19 *858:27 *5091:A 0.00036523
20 *858:27 *880:6 0.000162311
21 *858:27 *880:25 0.000205018
22 *858:38 *880:25 1.61831e-05
23 *858:64 *925:27 2.49909e-05
24 *4238:B *4289:C 5.16418e-05
25 *4238:B *858:38 2.23922e-05
26 *4238:B *858:47 0.000162318
27 *4238:B *858:55 0.000164352
28 *4289:B *858:47 6.28843e-05
29 *4290:A1_N *858:27 1.99848e-05
30 *4290:A1_N *858:38 8.32626e-05
31 *4290:A1_N *858:47 1.1561e-05
32 *4290:B1 *858:38 0.000134627
33 *4337:A *858:27 2.86976e-05
34 *4696:A *4207:B1 0.000185405
35 *5057:A *858:55 4.66108e-05
36 *256:18 *858:55 0.000111865
37 *256:18 *858:64 9.91257e-05
38 *315:10 *4289:C 0
39 *325:6 *4206:C 0.000122331
40 *382:10 *858:55 0.000146586
41 *382:10 *858:64 3.96653e-05
42 *429:40 *858:10 7.62088e-05
43 *430:10 *858:10 8.52883e-05
44 *431:8 *858:27 0
45 *432:10 *858:27 4.9968e-05
46 *466:12 *858:10 0.000385333
47 *466:12 *858:27 4.21973e-05
48 *479:6 *858:10 9.80943e-06
49 *479:10 *858:10 3.74359e-05
*RES
1 *5056:X *858:10 10.36 
2 *858:10 *4326:B 1.6 
3 *858:10 *858:27 15.88 
4 *858:27 *4290:A2_N 1.6 
5 *858:27 *858:38 4.34 
6 *858:38 *4239:A2_N 3.6 
7 *858:38 *858:47 1.89 
8 *858:47 *858:55 7.745 
9 *858:55 *4205:B 1.96 
10 *858:55 *858:64 5.625 
11 *858:64 *4207:B1 7.745 
12 *858:64 *4206:C 3.085 
13 *858:47 *4289:C 4.215 
*END

*D_NET *859 0.00148013
*CONN
*I *4016:A0 I *D sky130_fd_sc_hd__mux2_1
*I *4911:X O *D sky130_fd_sc_hd__dlygate4sd3_1
*CAP
1 *4016:A0 0.000442608
2 *4911:X 0.000442608
3 *4016:A0 *4505:RESET_B 2.25299e-05
4 *4016:A0 *5054:A 0.00012972
5 *4016:A0 *1049:27 3.3625e-05
6 *4367:A1 *4016:A0 0.000160338
7 *4368:B1 *4016:A0 1.08105e-05
8 *4911:A *4016:A0 0.000109489
9 *4913:A *4016:A0 8.06242e-05
10 *273:94 *4016:A0 4.77769e-05
*RES
1 *4911:X *4016:A0 13.935 
*END

*D_NET *860 0.00184329
*CONN
*I *4007:A0 I *D sky130_fd_sc_hd__mux2_1
*I *4912:X O *D sky130_fd_sc_hd__dlygate4sd3_1
*CAP
1 *4007:A0 0.000235015
2 *4912:X 0.000235015
3 *4007:A0 *4369:A2 0
4 *4007:A0 *986:59 4.13769e-05
5 *4007:A0 *986:65 0.000158881
6 *4007:A0 *1049:27 3.61163e-05
7 *4366:B2 *4007:A0 0.000135801
8 *5092:A *4007:A0 0.000495107
9 *696:82 *4007:A0 4.82863e-05
10 *696:101 *4007:A0 0.000457696
*RES
1 *4912:X *4007:A0 14.955 
*END

*D_NET *861 0.000665325
*CONN
*I *4036:A1 I *D sky130_fd_sc_hd__mux2_1
*I *4913:X O *D sky130_fd_sc_hd__dlygate4sd3_1
*CAP
1 *4036:A1 0.000224607
2 *4913:X 0.000224607
3 *4036:A0 *4036:A1 4.99619e-05
4 *4036:S *4036:A1 3.23663e-05
5 *4513:D *4036:A1 0.000133782
6 *696:33 *4036:A1 0
*RES
1 *4913:X *4036:A1 11.25 
*END

*D_NET *862 0.00213113
*CONN
*I *4471:A1 I *D sky130_fd_sc_hd__mux2_1
*I *4914:X O *D sky130_fd_sc_hd__dlygate4sd3_1
*CAP
1 *4471:A1 0.000353236
2 *4914:X 0.000353236
3 uio_oe[6] *4471:A1 1.42674e-05
4 *4670:RESET_B *4471:A1 8.45475e-05
5 *715:45 *4471:A1 0.000157543
6 *715:55 *4471:A1 0.000104389
7 *715:62 *4471:A1 0.000243947
8 *721:23 *4471:A1 0.000228244
9 *721:100 *4471:A1 0.000591723
*RES
1 *4914:X *4471:A1 16.71 
*END

*D_NET *863 0.00140683
*CONN
*I *4670:D I *D sky130_fd_sc_hd__dfrtp_2
*I *4915:X O *D sky130_fd_sc_hd__dlygate4sd3_1
*CAP
1 *4670:D 0.000471545
2 *4915:X 0.000471545
3 *4670:D *4471:A0 9.54399e-05
4 *4662:RESET_B *4670:D 0.000196364
5 *4897:A *4670:D 0
6 *4901:A *4670:D 9.46859e-06
7 *4915:A *4670:D 4.80285e-05
8 *721:100 *4670:D 0.000114438
*RES
1 *4915:X *4670:D 14.52 
*END

*D_NET *864 0.00181456
*CONN
*I *4054:A1 I *D sky130_fd_sc_hd__mux2_1
*I *4916:X O *D sky130_fd_sc_hd__dlygate4sd3_1
*CAP
1 *4054:A1 0.000577485
2 *4916:X 0.000577485
3 *4054:A0 *4054:A1 1.82563e-05
4 *4505:D *4054:A1 0
5 *4545:CLK *4054:A1 5.69248e-06
6 *4545:D *4054:A1 0.000159252
7 *4704:A *4054:A1 0.000316421
8 *267:30 *4054:A1 0
9 *267:36 *4054:A1 0
10 *274:22 *4054:A1 0
11 *611:23 *4054:A1 3.33983e-05
12 *621:106 *4054:A1 0.00012657
*RES
1 *4916:X *4054:A1 16.665 
*END

*D_NET *865 0.000569445
*CONN
*I *4098:A1 I *D sky130_fd_sc_hd__mux2_1
*I *4917:X O *D sky130_fd_sc_hd__dlygate4sd3_1
*CAP
1 *4098:A1 0.000134778
2 *4917:X 0.000134778
3 *4098:A1 *4183:A1 7.03276e-05
4 *4609:RESET_B *4098:A1 7.1624e-05
5 *722:77 *4098:A1 0.000157937
*RES
1 *4917:X *4098:A1 9.555 
*END

*D_NET *866 0.00104378
*CONN
*I *4468:A1 I *D sky130_fd_sc_hd__mux2_1
*I *4918:X O *D sky130_fd_sc_hd__dlygate4sd3_1
*CAP
1 *4468:A1 0.000438296
2 *4918:X 0.000438296
3 *4467:S *4468:A1 0
4 *4666:RESET_B *4468:A1 0.000142798
5 *4667:RESET_B *4468:A1 0
6 *5067:A *4468:A1 7.00889e-06
7 *258:116 *4468:A1 1.7386e-05
8 *758:8 *4468:A1 0
*RES
1 *4918:X *4468:A1 14.325 
*END

*D_NET *867 0.000664935
*CONN
*I *4667:D I *D sky130_fd_sc_hd__dfrtp_2
*I *4919:X O *D sky130_fd_sc_hd__dlygate4sd3_1
*CAP
1 *4667:D 0.000234806
2 *4919:X 0.000234806
3 *4467:S *4667:D 0
4 *4659:CLK *4667:D 0
5 *4666:RESET_B *4667:D 0
6 *4919:A *4667:D 9.98831e-05
7 *258:116 *4667:D 9.54399e-05
*RES
1 *4919:X *4667:D 11.265 
*END

*D_NET *868 0.00185274
*CONN
*I *4097:A0 I *D sky130_fd_sc_hd__mux2_1
*I *4105:A1 I *D sky130_fd_sc_hd__mux2_1
*I *4920:X O *D sky130_fd_sc_hd__dlygate4sd3_1
*CAP
1 *4097:A0 0.000130276
2 *4105:A1 0.000134522
3 *4920:X 6.67864e-05
4 *868:8 0.000331585
5 *4097:A0 *1089:8 0
6 *4105:A1 *4105:S 1.95374e-05
7 *4105:A1 *4955:A 4.82919e-05
8 *868:8 *1011:30 3.1835e-05
9 *4073:A1 *4097:A0 0.000246586
10 *4805:A *4097:A0 0
11 *5039:A *4105:A1 0.000139238
12 *313:10 *4097:A0 0.000149873
13 *313:10 *4105:A1 0.0003766
14 *613:22 *4105:A1 4.66108e-05
15 *704:10 *4097:A0 3.23391e-05
16 *704:10 *4105:A1 9.86611e-05
*RES
1 *4920:X *868:8 4.395 
2 *868:8 *4105:A1 8.49 
3 *868:8 *4097:A0 7.275 
*END

*D_NET *869 0.00612387
*CONN
*I *4188:B I *D sky130_fd_sc_hd__nor2_2
*I *4190:B I *D sky130_fd_sc_hd__or2_2
*I *4192:D I *D sky130_fd_sc_hd__and4b_2
*I *4229:B I *D sky130_fd_sc_hd__nor2_2
*I *5090:X O *D sky130_fd_sc_hd__buf_1
*CAP
1 *4188:B 0
2 *4190:B 3.29163e-05
3 *4192:D 1.65033e-05
4 *4229:B 0
5 *5090:X 0.000534312
6 *869:45 0.000566056
7 *869:39 0.001045
8 *869:22 0.00106268
9 *4190:B *4190:A 0.00010978
10 *4192:D *4190:A 4.66108e-05
11 *869:22 *4239:A1_N 3.75011e-05
12 *869:22 *903:31 0.000131791
13 *869:39 *4188:A 7.45031e-05
14 *869:39 *880:37 0.000461129
15 *869:39 *936:33 0.000107424
16 *869:45 *4150:B 0.000179015
17 *869:45 *4169:B 5.11148e-06
18 *869:45 *903:44 0.000100544
19 *869:45 *903:59 7.05566e-05
20 *869:45 *914:57 2.7881e-05
21 *869:45 *914:66 1.26548e-05
22 *869:45 *925:27 3.18137e-05
23 *869:45 *936:37 0
24 *4170:A *4190:B 1.91597e-05
25 *4192:B *4190:B 4.80285e-05
26 *4192:B *4192:D 2.49909e-05
27 *4218:B *869:45 0
28 *4228:A1 *869:45 9.47454e-05
29 *4239:B2 *869:22 2.55587e-05
30 *4241:A *869:22 2.75145e-05
31 *4241:A *869:39 3.67955e-05
32 *4252:A *869:45 3.05295e-05
33 *4266:B1 *869:22 6.77185e-05
34 *4266:B2 *869:22 0.000209265
35 *4290:B1 *869:22 0
36 *4290:B2 *869:22 7.06e-05
37 *4696:A *869:45 0
38 *297:19 *869:22 6.17517e-07
39 *306:12 *869:45 4.46892e-05
40 *351:25 *869:45 0
41 *361:6 *869:39 3.23663e-05
42 *381:73 *869:22 0.00019637
43 *383:8 *869:22 0.000237243
44 *385:12 *869:39 0.000272984
45 *392:41 *869:22 3.09164e-05
*RES
1 *5090:X *869:22 16.625 
2 *869:22 *4229:B 1.6 
3 *869:22 *869:39 10.275 
4 *869:39 *869:45 14.56 
5 *869:45 *4192:D 2.05 
6 *869:45 *4190:B 2.74 
7 *869:39 *4188:B 1.6 
*END

*D_NET *870 0.000268927
*CONN
*I *4595:D I *D sky130_fd_sc_hd__dfrtp_2
*I *4921:X O *D sky130_fd_sc_hd__dlygate4sd3_1
*CAP
1 *4595:D 4.93896e-05
2 *4921:X 4.93896e-05
3 *4595:D *1097:12 0
4 *4727:A *4595:D 5.39961e-05
5 *307:10 *4595:D 0.000116151
*RES
1 *4921:X *4595:D 8.58 
*END

*D_NET *871 0.00432877
*CONN
*I *4077:A1 I *D sky130_fd_sc_hd__mux2_1
*I *4922:X O *D sky130_fd_sc_hd__dlygate4sd3_1
*CAP
1 *4077:A1 0.00215034
2 *4922:X 0.00215034
3 *4077:A1 *4210:A2 0
4 *4077:A1 *4271:A2 1.88602e-05
5 *4077:A1 *1015:71 9.22294e-06
*RES
1 *4922:X *4077:A1 13.2201 
*END

*D_NET *872 0.000417157
*CONN
*I *4567:D I *D sky130_fd_sc_hd__dfrtp_2
*I *4923:X O *D sky130_fd_sc_hd__dlygate4sd3_1
*CAP
1 *4567:D 9.21106e-05
2 *4923:X 9.21106e-05
3 *4567:D *4567:RESET_B 4.82863e-05
4 *4567:D *1062:12 0
5 *4567:CLK *4567:D 2.49909e-05
6 *614:12 *4567:D 0.000107322
7 *614:16 *4567:D 5.23362e-05
*RES
1 *4923:X *4567:D 9.54 
*END

*D_NET *873 0.000318005
*CONN
*I *4024:A0 I *D sky130_fd_sc_hd__mux2_1
*I *4924:X O *D sky130_fd_sc_hd__dlygate4sd3_1
*CAP
1 *4024:A0 0.000159002
2 *4924:X 0.000159002
*RES
1 *4924:X *4024:A0 5.375 
*END

*D_NET *874 0.000902489
*CONN
*I *4469:A1 I *D sky130_fd_sc_hd__mux2_1
*I *4925:X O *D sky130_fd_sc_hd__dlygate4sd3_1
*CAP
1 *4469:A1 0.000317854
2 *4925:X 0.000317854
3 *4666:RESET_B *4469:A1 0.00011655
4 *4813:A *4469:A1 6.02202e-05
5 *4919:A *4469:A1 1.83847e-05
6 *258:45 *4469:A1 1.73877e-05
7 *258:116 *4469:A1 5.4239e-05
*RES
1 *4925:X *4469:A1 12.795 
*END

*D_NET *875 0.00127119
*CONN
*I *4668:D I *D sky130_fd_sc_hd__dfrtp_2
*I *4926:X O *D sky130_fd_sc_hd__dlygate4sd3_1
*CAP
1 *4668:D 0.000373466
2 *4926:X 0.000373466
3 *4661:RESET_B *4668:D 0.000129283
4 *4666:RESET_B *4668:D 0
5 *258:45 *4668:D 6.28687e-05
6 *717:10 *4668:D 0.000332107
7 *721:100 *4668:D 0
*RES
1 *4926:X *4668:D 14.49 
*END

*D_NET *876 0.000866962
*CONN
*I *4006:A0 I *D sky130_fd_sc_hd__mux2_1
*I *4927:X O *D sky130_fd_sc_hd__dlygate4sd3_1
*CAP
1 *4006:A0 0.000202256
2 *4927:X 0.000202256
3 *4006:A0 *4006:A1 4.89395e-05
4 *4006:A0 *1006:22 0.000134625
5 *4006:A0 *1015:40 1.74776e-05
6 *4331:B2 *4006:A0 0.000261407
*RES
1 *4927:X *4006:A0 12.045 
*END

*D_NET *877 0.00123271
*CONN
*I *4470:A1 I *D sky130_fd_sc_hd__mux2_1
*I *4928:X O *D sky130_fd_sc_hd__dlygate4sd3_1
*CAP
1 *4470:A1 0.000228054
2 *4928:X 0.000228054
3 *4735:A *4470:A1 9.57632e-05
4 *4929:A *4470:A1 0.000298435
5 *5069:A *4470:A1 1.03323e-05
6 *258:59 *4470:A1 0.00010141
7 *780:12 *4470:A1 0.000270658
*RES
1 *4928:X *4470:A1 13.8 
*END

*D_NET *878 0.000736125
*CONN
*I *4669:D I *D sky130_fd_sc_hd__dfrtp_2
*I *4929:X O *D sky130_fd_sc_hd__dlygate4sd3_1
*CAP
1 *4669:D 0.000251885
2 *4929:X 0.000251885
3 *4661:D *4669:D 4.99619e-05
4 *4826:A *4669:D 6.55328e-05
5 *721:100 *4669:D 0.00011686
*RES
1 *4929:X *4669:D 11.55 
*END

*D_NET *879 0.00151036
*CONN
*I *4474:A1 I *D sky130_fd_sc_hd__mux2_1
*I *4930:X O *D sky130_fd_sc_hd__dlygate4sd3_1
*CAP
1 *4474:A1 0.000508124
2 *4930:X 0.000508124
3 *4474:A1 *4474:A0 0.000124007
4 *4440:B *4474:A1 7.63125e-05
5 *4441:B *4474:A1 6.28765e-05
6 *4641:CLK *4474:A1 4.21973e-05
7 *4930:A *4474:A1 0
8 *4931:A *4474:A1 9.91257e-05
9 *617:99 *4474:A1 8.95932e-05
*RES
1 *4930:X *4474:A1 15.75 
*END

*D_NET *880 0.00445124
*CONN
*I *4229:A I *D sky130_fd_sc_hd__nor2_2
*I *4179:B I *D sky130_fd_sc_hd__or2_2
*I *4207:A2 I *D sky130_fd_sc_hd__o22a_2
*I *4288:A I *D sky130_fd_sc_hd__nor2_2
*I *5091:X O *D sky130_fd_sc_hd__clkbuf_2
*CAP
1 *4229:A 0
2 *4179:B 4.02758e-05
3 *4207:A2 0
4 *4288:A 3.61957e-05
5 *5091:X 3.39754e-05
6 *880:37 0.000335171
7 *880:25 0.00097012
8 *880:6 0.000745395
9 *4179:B *914:57 0.000140912
10 *4288:A *5091:A 0
11 *880:37 *914:40 8.53113e-06
12 *880:37 *914:57 0.000417503
13 *880:37 *936:33 0.000120655
14 *4241:A *880:37 0.000107932
15 *4241:B *880:25 7.63125e-05
16 *4266:A1 *880:25 2.65814e-06
17 *4290:B1 *880:25 5.30673e-05
18 *4290:B2 *880:25 6.47326e-05
19 *4337:A *880:6 6.54766e-05
20 *4337:A *880:25 4.9253e-06
21 *4729:A *4179:B 7.26629e-05
22 *4729:A *880:37 0.000235656
23 *409:8 *880:25 7.44453e-05
24 *858:27 *4288:A 0
25 *858:27 *880:6 0.000162311
26 *858:27 *880:25 0.000205018
27 *858:38 *880:25 1.61831e-05
28 *869:39 *880:37 0.000461129
*RES
1 *5091:X *880:6 3.085 
2 *880:6 *4288:A 2.215 
3 *880:6 *880:25 13.795 
4 *880:25 *880:37 12.365 
5 *880:37 *4207:A2 3.6 
6 *880:37 *4179:B 5.235 
7 *880:25 *4229:A 1.6 
*END

*D_NET *881 0.00115935
*CONN
*I *4673:D I *D sky130_fd_sc_hd__dfrtp_2
*I *4931:X O *D sky130_fd_sc_hd__dlygate4sd3_1
*CAP
1 *4673:D 0.000363941
2 *4931:X 0.000363941
3 *4673:D *4474:A0 0.000183043
4 *4440:B *4673:D 0
5 *4931:A *4673:D 0.000186092
6 *617:99 *4673:D 6.23375e-05
*RES
1 *4931:X *4673:D 14.145 
*END

*D_NET *882 0.00110841
*CONN
*I *4473:A1 I *D sky130_fd_sc_hd__mux2_1
*I *4932:X O *D sky130_fd_sc_hd__dlygate4sd3_1
*CAP
1 *4473:A1 0.000291016
2 *4932:X 0.000291016
3 uio_out[4] *4473:A1 0.000173754
4 uio_out[5] *4473:A1 3.64998e-06
5 *4472:A1 *4473:A1 0.000243999
6 *715:38 *4473:A1 9.16941e-05
7 *721:23 *4473:A1 0
8 *722:32 *4473:A1 1.32843e-05
*RES
1 *4932:X *4473:A1 13.29 
*END

*D_NET *883 0.00110676
*CONN
*I *4672:D I *D sky130_fd_sc_hd__dfrtp_2
*I *4933:X O *D sky130_fd_sc_hd__dlygate4sd3_1
*CAP
1 *4672:D 0.000368148
2 *4933:X 0.000368148
3 uio_oe[5] *4672:D 0.000150097
4 *4465:S *4672:D 0
5 *4671:D *4672:D 8.65983e-05
6 *4840:A *4672:D 4.77807e-05
7 *4933:A *4672:D 8.59856e-05
*RES
1 *4933:X *4672:D 14.415 
*END

*D_NET *884 0.00147245
*CONN
*I *4081:A0 I *D sky130_fd_sc_hd__mux2_1
*I *4089:A1 I *D sky130_fd_sc_hd__mux2_1
*I *4934:X O *D sky130_fd_sc_hd__dlygate4sd3_1
*CAP
1 *4081:A0 0.000140385
2 *4089:A1 0.000351799
3 *4934:X 3.48385e-05
4 *884:6 0.000527023
5 *4081:A0 *4571:D 3.48266e-05
6 *4081:A0 *4753:A 0.000315337
7 *4089:A1 *4089:S 2.11084e-05
8 *4935:A *4081:A0 0
9 *271:6 *4089:A1 4.17622e-05
10 *271:6 *884:6 5.36384e-06
*RES
1 *4934:X *884:6 2.05 
2 *884:6 *4089:A1 5.5 
3 *884:6 *4081:A0 9.275 
*END

*D_NET *885 0.000246849
*CONN
*I *4571:D I *D sky130_fd_sc_hd__dfrtp_2
*I *4935:X O *D sky130_fd_sc_hd__dlygate4sd3_1
*CAP
1 *4571:D 0.000103329
2 *4935:X 0.000103329
3 *4081:A0 *4571:D 3.48266e-05
4 *4935:A *4571:D 0
5 *271:6 *4571:D 5.36384e-06
*RES
1 *4935:X *4571:D 8.775 
*END

*D_NET *886 0.000569914
*CONN
*I *4042:A1 I *D sky130_fd_sc_hd__mux2_1
*I *4936:X O *D sky130_fd_sc_hd__dlygate4sd3_1
*CAP
1 *4042:A1 0.000131449
2 *4936:X 0.000131449
3 *4042:A1 *982:151 7.23533e-05
4 *4042:A1 *1017:24 7.4027e-05
5 *4042:A1 *1040:8 0.000160635
*RES
1 *4936:X *4042:A1 9.555 
*END

*D_NET *887 0.000952289
*CONN
*I *4034:A1 I *D sky130_fd_sc_hd__mux2_1
*I *4937:X O *D sky130_fd_sc_hd__dlygate4sd3_1
*CAP
1 *4034:A1 0.000205318
2 *4937:X 0.000205318
3 *4034:A1 *3996:A1 0.000155497
4 *4034:A1 *4214:A2 1.91597e-05
5 *4034:A1 *4284:D 4.82919e-05
6 *4034:A1 *1028:22 0.00013521
7 *4005:S *4034:A1 0.000136884
8 *4034:S *4034:A1 4.66108e-05
*RES
1 *4937:X *4034:A1 11.115 
*END

*D_NET *888 0.000619918
*CONN
*I *4063:A1 I *D sky130_fd_sc_hd__mux2_1
*I *4938:X O *D sky130_fd_sc_hd__dlygate4sd3_1
*CAP
1 *4063:A1 0.000307492
2 *4938:X 0.000307492
3 *4063:S *4063:A1 4.9339e-06
*RES
1 *4938:X *4063:A1 6.41 
*END

*D_NET *889 0.000319143
*CONN
*I *4038:A1 I *D sky130_fd_sc_hd__mux2_1
*I *4939:X O *D sky130_fd_sc_hd__dlygate4sd3_1
*CAP
1 *4038:A1 2.4067e-05
2 *4939:X 2.4067e-05
3 *273:12 *4038:A1 5.30673e-05
4 *273:26 *4038:A1 5.30673e-05
5 *429:6 *4038:A1 0.000164874
*RES
1 *4939:X *4038:A1 4.685 
*END

*D_NET *890 0.0031423
*CONN
*I *4109:A1 I *D sky130_fd_sc_hd__mux2_1
*I *4101:A0 I *D sky130_fd_sc_hd__mux2_1
*I *4940:X O *D sky130_fd_sc_hd__dlygate4sd3_1
*CAP
1 *4109:A1 0
2 *4101:A0 0.000616372
3 *4940:X 0.00037706
4 *890:10 0.000993432
5 *4101:A0 *4093:A0 4.89295e-05
6 *4101:A0 *4101:S 4.77757e-05
7 *4101:A0 *4267:A 0
8 *4101:A0 *4998:A 8.65905e-05
9 *4101:A0 *951:12 0.000180795
10 *4101:A0 *990:85 4.77719e-05
11 *4101:A0 *1093:10 3.09233e-05
12 *4101:A0 *1101:10 4.76581e-05
13 *890:10 *4267:A 7.40458e-05
14 *890:10 *4940:A 8.14286e-05
15 *890:10 *1008:31 0.000109489
16 *890:10 *1093:10 0.000400034
17 *4615:CLK *4101:A0 0
18 *4615:D *4101:A0 0
*RES
1 *4940:X *890:10 11.145 
2 *890:10 *4101:A0 14.88 
3 *890:10 *4109:A1 3.6 
*END

*D_NET *891 0.0134037
*CONN
*I *5091:A I *D sky130_fd_sc_hd__clkbuf_2
*I *4324:A I *D sky130_fd_sc_hd__nor2_2
*I *4377:A I *D sky130_fd_sc_hd__or2_2
*I *5092:X O *D sky130_fd_sc_hd__clkbuf_2
*CAP
1 *5091:A 0.000815672
2 *4324:A 0.000104534
3 *4377:A 0.000283657
4 *5092:X 0.00262896
5 *891:45 0.00102755
6 *891:26 0.00301997
7 *4377:A *936:16 9.21064e-05
8 *891:26 *4127:A0 0.000357499
9 *891:26 *4127:A1 4.16353e-05
10 *891:26 *4359:B 6.71882e-05
11 *891:26 *4363:A1 8.73389e-06
12 *891:26 *4369:A2 0
13 *891:26 *4991:A 6.27529e-05
14 *891:26 *947:26 1.07797e-05
15 *891:26 *998:48 2.19562e-06
16 *891:26 *1103:6 9.71251e-06
17 *3998:A1 *891:26 0.000136604
18 *4026:A0 *891:26 4.82863e-05
19 *4287:A *4324:A 8.51879e-05
20 *4288:A *5091:A 0
21 *4337:A *5091:A 0.000631452
22 *4339:A2_N *4324:A 5.17355e-05
23 *4362:B1 *891:26 8.49205e-05
24 *4366:C1 *891:26 7.22739e-05
25 *4372:A *4377:A 0
26 *4374:A *891:26 0.000568705
27 *4380:B *4377:A 0
28 *4384:A *4377:A 1.77595e-05
29 *4521:D *891:26 0.000163204
30 *4521:RESET_B *891:26 8.07616e-05
31 *4601:RESET_B *891:26 0.000116497
32 *4965:A *891:26 8.73389e-06
33 *5056:A *4377:A 4.99524e-05
34 *333:10 *5091:A 5.70461e-06
35 *333:25 *5091:A 2.06841e-05
36 *429:40 *4324:A 4.77757e-05
37 *429:40 *891:26 0.000556456
38 *430:10 *4377:A 0.000155219
39 *430:16 *4377:A 1.08056e-05
40 *466:12 *5091:A 6.26996e-05
41 *468:12 *5091:A 5.42739e-05
42 *479:6 *5091:A 8.65961e-05
43 *479:10 *4324:A 3.83345e-05
44 *479:10 *5091:A 0.000327752
45 *479:10 *891:26 0.000243092
46 *479:10 *891:45 0.000149072
47 *661:10 *891:26 1.83847e-05
48 *696:101 *891:26 0.00037658
49 *858:10 *4324:A 0.00023603
50 *858:27 *5091:A 0.00036523
*RES
1 *5092:X *891:26 48.245 
2 *891:26 *4377:A 11.045 
3 *891:26 *891:45 1.485 
4 *891:45 *4324:A 9.005 
5 *891:45 *5091:A 20.705 
*END

*D_NET *892 0.00168713
*CONN
*I *4599:D I *D sky130_fd_sc_hd__dfrtp_2
*I *4941:X O *D sky130_fd_sc_hd__dlygate4sd3_1
*CAP
1 *4599:D 0.000319545
2 *4941:X 0.000319545
3 *4599:D *4268:B2 6.71617e-05
4 *4599:D *994:69 0.000506197
5 *4599:D *1032:54 5.59179e-05
6 *4273:A2 *4599:D 5.83121e-06
7 *4607:CLK *4599:D 0.000358937
8 *620:17 *4599:D 5.39961e-05
*RES
1 *4941:X *4599:D 15.345 
*END

*D_NET *893 0.00222819
*CONN
*I *4108:A1 I *D sky130_fd_sc_hd__mux2_1
*I *4100:A0 I *D sky130_fd_sc_hd__mux2_1
*I *4942:X O *D sky130_fd_sc_hd__dlygate4sd3_1
*CAP
1 *4108:A1 9.02788e-05
2 *4100:A0 5.88819e-05
3 *4942:X 5.88033e-05
4 *893:6 0.000207964
5 *4100:A0 *4100:S 4.77757e-05
6 *4100:A0 *4804:A 4.82919e-05
7 *4100:A0 *4942:A 4.66108e-05
8 *4108:A1 *4245:A1 0.000303969
9 *4108:A1 *4247:A1 0.000292053
10 *4108:A1 *1011:80 9.50342e-06
11 *4108:A1 *1092:10 2.82846e-05
12 *893:6 *4942:A 0.000379584
13 *4065:A0 *4100:A0 0.000270089
14 *4065:A0 *893:6 0.000198939
15 *4073:A1 *893:6 0.000115146
16 *627:80 *4100:A0 7.20102e-05
*RES
1 *4942:X *893:6 5.155 
2 *893:6 *4100:A0 4.12 
3 *893:6 *4108:A1 9.275 
*END

*D_NET *894 0.00116518
*CONN
*I *4118:A1 I *D sky130_fd_sc_hd__mux2_1
*I *4110:A0 I *D sky130_fd_sc_hd__mux2_1
*I *4943:X O *D sky130_fd_sc_hd__dlygate4sd3_1
*CAP
1 *4118:A1 0.000295868
2 *4110:A0 7.67794e-05
3 *4943:X 5.38387e-05
4 *894:10 0.000426486
5 *4110:A0 *4110:A1 4.82863e-05
6 *4118:A1 *4745:A 0.000157968
7 *894:10 *4110:S 9.37731e-05
8 *894:10 *4745:A 0
9 *894:10 *5045:A 8.53113e-06
10 *4944:A *4110:A0 3.64998e-06
*RES
1 *4943:X *894:10 6.725 
2 *894:10 *4110:A0 2.74 
3 *894:10 *4118:A1 6.19 
*END

*D_NET *895 0.000188901
*CONN
*I *4600:D I *D sky130_fd_sc_hd__dfrtp_2
*I *4944:X O *D sky130_fd_sc_hd__dlygate4sd3_1
*CAP
1 *4600:D 5.347e-05
2 *4944:X 5.347e-05
3 *4600:D *4313:B_N 7.01303e-05
4 *4600:D *4313:C 0
5 *4600:D *4315:A2 1.18308e-05
*RES
1 *4944:X *4600:D 8.325 
*END

*D_NET *896 0.000826597
*CONN
*I *4102:A0 I *D sky130_fd_sc_hd__mux2_1
*I *4945:X O *D sky130_fd_sc_hd__dlygate4sd3_1
*CAP
1 *4102:A0 0.000151081
2 *4945:X 0.000151081
3 *4102:A0 *4311:B2 0.00019898
4 *4102:A0 *4945:A 1.07797e-05
5 *4102:A0 *990:14 0.00019072
6 *4102:A0 *990:16 0.000123955
7 *4946:A *4102:A0 0
*RES
1 *4945:X *4102:A0 11.115 
*END

*D_NET *897 0.000678862
*CONN
*I *4592:D I *D sky130_fd_sc_hd__dfrtp_2
*I *4946:X O *D sky130_fd_sc_hd__dlygate4sd3_1
*CAP
1 *4592:D 0.000258491
2 *4946:X 0.000258491
3 *4592:D *4094:A0 0
4 *4592:D *4592:RESET_B 3.09164e-05
5 *4592:D *4992:A 9.49635e-05
6 *4592:D *990:22 0
7 *4592:D *1078:23 0
8 *4592:D *1086:21 3.59997e-05
*RES
1 *4946:X *4592:D 11.505 
*END

*D_NET *898 0.000323615
*CONN
*I *4060:A1 I *D sky130_fd_sc_hd__mux2_1
*I *4947:X O *D sky130_fd_sc_hd__dlygate4sd3_1
*CAP
1 *4060:A1 0.000115433
2 *4947:X 0.000115433
3 *4947:A *4060:A1 9.27495e-05
*RES
1 *4947:X *4060:A1 4.685 
*END

*D_NET *899 0.00106246
*CONN
*I *4120:A1 I *D sky130_fd_sc_hd__mux2_1
*I *4112:A0 I *D sky130_fd_sc_hd__mux2_1
*I *4948:X O *D sky130_fd_sc_hd__dlygate4sd3_1
*CAP
1 *4120:A1 0
2 *4112:A0 0.000296896
3 *4948:X 2.77531e-05
4 *899:10 0.000324649
5 *4112:A0 *4112:A1 4.99619e-05
6 *4112:A0 *982:34 0.000252175
7 *899:10 *1021:139 7.23602e-05
8 *899:10 *1104:10 3.86607e-05
*RES
1 *4948:X *899:10 6.47 
2 *899:10 *4112:A0 5.5 
3 *899:10 *4120:A1 1.6 
*END

*D_NET *900 0.000950211
*CONN
*I *4602:D I *D sky130_fd_sc_hd__dfrtp_2
*I *4949:X O *D sky130_fd_sc_hd__dlygate4sd3_1
*CAP
1 *4602:D 0.000179113
2 *4949:X 0.000179113
3 *4602:D *4104:A0 5.93963e-05
4 *4602:D *4104:A1 4.99619e-05
5 *4602:D *4104:S 0.000352265
6 *4602:D *4142:B 0
7 *702:54 *4602:D 0.000130363
*RES
1 *4949:X *4602:D 12.135 
*END

*D_NET *901 0.00208046
*CONN
*I *4104:A1 I *D sky130_fd_sc_hd__mux2_1
*I *4096:A0 I *D sky130_fd_sc_hd__mux2_1
*I *4950:X O *D sky130_fd_sc_hd__dlygate4sd3_1
*CAP
1 *4104:A1 0.000316403
2 *4096:A0 0.000127089
3 *4950:X 0.000108968
4 *901:8 0.00055246
5 *4096:A0 *4096:A1 4.82863e-05
6 *4096:A0 *4096:S 3.00381e-05
7 *4104:A1 *4104:S 2.30292e-05
8 *4104:A1 *4142:A 0
9 *4104:A1 *4142:B 2.0851e-06
10 *4602:D *4104:A1 4.99619e-05
11 *4610:CLK *4104:A1 0
12 *4697:A *901:8 8.7152e-06
13 *4740:A *4096:A0 3.0286e-05
14 *5038:A *4096:A0 1.62913e-05
15 *3:30 *4104:A1 6.87023e-06
16 *3:30 *901:8 7.32805e-06
17 *280:51 *4104:A1 0
18 *280:51 *901:8 0
19 *290:12 *4104:A1 5.55254e-05
20 *700:10 *4096:A0 0.000500245
21 *701:14 *4096:A0 0.000123295
22 *702:54 *4104:A1 7.35813e-05
*RES
1 *4950:X *901:8 4.98 
2 *901:8 *4096:A0 8.55 
3 *901:8 *4104:A1 8.925 
*END

*D_NET *902 0.0129675
*CONN
*I *4000:A1 I *D sky130_fd_sc_hd__mux2_1
*I *4019:A1 I *D sky130_fd_sc_hd__mux2_1
*I *4009:A1 I *D sky130_fd_sc_hd__mux2_1
*I *4029:A0 I *D sky130_fd_sc_hd__mux2_1
*I *4038:A0 I *D sky130_fd_sc_hd__mux2_1
*I *4056:A0 I *D sky130_fd_sc_hd__mux2_1
*I *3991:A1 I *D sky130_fd_sc_hd__mux2_1
*I *4047:A0 I *D sky130_fd_sc_hd__mux2_1
*I *4482:A1 I *D sky130_fd_sc_hd__mux2_1
*I *5030:X O *D sky130_fd_sc_hd__clkdlybuf4s25_1
*CAP
1 *4000:A1 0
2 *4019:A1 0
3 *4009:A1 6.59077e-05
4 *4029:A0 0.000256817
5 *4038:A0 7.17468e-05
6 *4056:A0 0.000283869
7 *3991:A1 0
8 *4047:A0 3.37585e-05
9 *4482:A1 0.000398555
10 *5030:X 0.000952984
11 *902:51 0.000506475
12 *902:40 0.00032682
13 *902:36 0.000290461
14 *902:34 0.000465815
15 *902:32 0.000332667
16 *902:30 0.000591643
17 *902:20 0.000940051
18 *4009:A1 *1024:20 2.86265e-06
19 *4029:A0 *1018:43 0.000408765
20 *4056:A0 *3991:S 0.000155429
21 *4482:A1 *4068:A1 0.000506643
22 *4482:A1 *4486:A0 0.000281451
23 *4482:A1 *5000:A 0.000313857
24 *902:30 *4486:A0 0.000332675
25 *902:30 *4498:RESET_B 0
26 *902:32 *1009:34 0
27 *902:32 *1010:24 9.82856e-06
28 *902:32 *1016:111 2.82642e-05
29 *902:34 *1016:111 1.74516e-05
30 *902:36 *1016:10 8.48367e-05
31 *902:36 *1016:111 4.19967e-05
32 *902:40 *1016:10 8.683e-05
33 *902:51 *3991:S 1.85674e-05
34 *3991:A0 *4056:A0 1.34503e-05
35 *3991:A0 *902:51 4.99619e-05
36 *3999:C *4482:A1 0.000240011
37 *4000:A0 *902:20 2.7441e-05
38 *4000:A0 *902:30 4.99619e-05
39 *4000:S *4482:A1 0.00057596
40 *4000:S *902:20 0.000745186
41 *4009:A0 *4009:A1 4.82863e-05
42 *4009:S *4009:A1 3.64998e-06
43 *4019:A0 *902:30 0.00030638
44 *4056:S *4056:A0 0.000105163
45 *4136:A2 *902:32 0
46 *4482:A0 *4482:A1 4.99619e-05
47 *4490:D *902:51 8.5002e-05
48 *4498:D *902:30 3.68769e-05
49 *4506:D *902:32 8.53113e-06
50 *4506:D *902:34 0.000112892
51 *4514:D *902:30 0
52 *4514:D *902:32 0
53 *4530:D *4038:A0 1.83847e-05
54 *4748:A *4482:A1 0.000282592
55 *4866:A *902:30 0
56 *5027:A *4482:A1 8.65905e-05
57 *268:32 *4029:A0 0.000499154
58 *268:32 *902:32 3.76596e-05
59 *268:32 *902:34 3.67779e-05
60 *268:51 *902:32 5.36054e-05
61 *270:12 *902:30 5.13581e-05
62 *270:18 *902:30 3.25997e-05
63 *270:18 *902:32 0.000122754
64 *270:18 *902:34 7.23961e-06
65 *270:18 *902:36 6.65804e-05
66 *271:6 *4482:A1 0.000982534
67 *273:26 *4038:A0 2.75229e-05
68 *274:85 *902:40 1.71013e-05
69 *274:100 *902:36 8.5225e-05
70 *274:100 *902:40 9.76522e-05
71 *429:6 *4038:A0 0.000196376
*RES
1 *5030:X *4482:A1 23.315 
2 *5030:X *902:20 9.565 
3 *902:20 *902:30 11.405 
4 *902:30 *902:32 4.185 
5 *902:32 *902:34 1.635 
6 *902:34 *902:36 3.93 
7 *902:36 *902:40 4.4 
8 *902:40 *4047:A0 2.05 
9 *902:40 *902:51 3.915 
10 *902:51 *3991:A1 1.6 
11 *902:51 *4056:A0 6.82 
12 *902:36 *4038:A0 5.43 
13 *902:34 *4029:A0 11.655 
14 *902:32 *4009:A1 4.395 
15 *902:30 *4019:A1 3.6 
16 *902:20 *4000:A1 1.6 
*END

*D_NET *903 0.00433748
*CONN
*I *4169:B I *D sky130_fd_sc_hd__or2_2
*I *4189:C I *D sky130_fd_sc_hd__or3_2
*I *4206:A I *D sky130_fd_sc_hd__nor3_2
*I *4207:A1 I *D sky130_fd_sc_hd__o22a_2
*I *4239:A1_N I *D sky130_fd_sc_hd__a2bb2o_2
*I *5057:X O *D sky130_fd_sc_hd__buf_1
*CAP
1 *4169:B 0.000177317
2 *4189:C 0
3 *4206:A 9.73191e-06
4 *4207:A1 0
5 *4239:A1_N 1.58523e-05
6 *5057:X 6.78744e-05
7 *903:59 0.000315563
8 *903:44 0.000490951
9 *903:31 0.000752334
10 *903:10 0.000493088
11 *4169:B *4150:B 0
12 *4169:B *4169:A 3.293e-05
13 *903:31 *925:8 0.000196376
14 *903:44 *925:8 6.53624e-05
15 *4189:A *4169:B 0.000284274
16 *4193:B *903:59 0
17 *4208:B *903:44 0.000233751
18 *4208:B *903:59 4.43871e-06
19 *4238:B *903:10 6.47516e-05
20 *4241:B *903:31 4.66108e-05
21 *4266:B1 *903:31 4.82863e-05
22 *4290:B2 *903:10 0
23 *5058:A *903:31 8.3193e-05
24 *5058:A *903:44 0
25 *297:19 *4239:A1_N 3.84487e-05
26 *297:19 *903:31 0.000223147
27 *306:12 *4169:B 0.000220452
28 *325:18 *4206:A 4.82863e-05
29 *351:10 *4206:A 4.82863e-05
30 *351:25 *903:44 1.73877e-05
31 *383:8 *903:31 1.32806e-05
32 *869:22 *4239:A1_N 3.75011e-05
33 *869:22 *903:31 0.000131791
34 *869:45 *4169:B 5.11148e-06
35 *869:45 *903:44 0.000100544
36 *869:45 *903:59 7.05566e-05
*RES
1 *5057:X *903:10 6.98 
2 *903:10 *4239:A1_N 2.2225 
3 *903:10 *903:31 9.78 
4 *903:31 *4207:A1 1.6 
5 *903:31 *903:44 9.095 
6 *903:44 *4206:A 4.05 
7 *903:44 *903:59 2.445 
8 *903:59 *4189:C 3.6 
9 *903:59 *4169:B 8.085 
*END

*D_NET *904 0.00111793
*CONN
*I *4586:D I *D sky130_fd_sc_hd__dfrtp_2
*I *4951:X O *D sky130_fd_sc_hd__dlygate4sd3_1
*CAP
1 *4586:D 0.000265007
2 *4951:X 0.000265007
3 *4586:D *985:16 0.000326828
4 *4586:D *1013:44 0
5 *3:30 *4586:D 4.9595e-05
6 *289:20 *4586:D 8.8266e-05
7 *626:42 *4586:D 0.000123225
8 *700:10 *4586:D 0
*RES
1 *4951:X *4586:D 13.065 
*END

*D_NET *905 0.00142595
*CONN
*I *4033:A1 I *D sky130_fd_sc_hd__mux2_1
*I *4952:X O *D sky130_fd_sc_hd__dlygate4sd3_1
*CAP
1 *4033:A1 0.000344261
2 *4952:X 0.000344261
3 *4033:A1 *4033:A0 4.99619e-05
4 *4033:A1 *958:109 0
5 *4231:B2 *4033:A1 0.000148377
6 *4526:D *4033:A1 0.000295663
7 *4952:A *4033:A1 0.000199054
8 *276:23 *4033:A1 4.43682e-05
*RES
1 *4952:X *4033:A1 15.93 
*END

*D_NET *906 0.00330267
*CONN
*I *4095:A0 I *D sky130_fd_sc_hd__mux2_1
*I *4103:A1 I *D sky130_fd_sc_hd__mux2_1
*I *4953:X O *D sky130_fd_sc_hd__dlygate4sd3_1
*CAP
1 *4095:A0 0
2 *4103:A1 0.000440361
3 *4953:X 0.000394244
4 *906:10 0.000834605
5 *4103:A1 *4095:A1 0.000301763
6 *4103:A1 *4103:A0 4.89395e-05
7 *4103:A1 *4185:A1 0.000683229
8 *4103:A1 *4585:D 0.00017594
9 *906:10 *4585:D 0.000109207
10 *4369:C1 *906:10 0.00014785
11 *4954:A *906:10 0
12 *618:10 *4103:A1 1.16104e-05
13 *618:10 *906:10 9.387e-06
14 *618:34 *906:10 7.99969e-05
15 *618:51 *906:10 6.55406e-05
*RES
1 *4953:X *906:10 10.23 
2 *906:10 *4103:A1 13.845 
3 *906:10 *4095:A0 3.6 
*END

*D_NET *907 0.000733962
*CONN
*I *4585:D I *D sky130_fd_sc_hd__dfrtp_2
*I *4954:X O *D sky130_fd_sc_hd__dlygate4sd3_1
*CAP
1 *4585:D 0.000188656
2 *4954:X 0.000188656
3 *4103:A1 *4585:D 0.00017594
4 *4593:CLK *4585:D 1.56428e-05
5 *4954:A *4585:D 1.96308e-05
6 *280:69 *4585:D 3.62299e-05
7 *906:10 *4585:D 0.000109207
*RES
1 *4954:X *4585:D 11.07 
*END

*D_NET *908 0.000341206
*CONN
*I *4113:A1 I *D sky130_fd_sc_hd__mux2_1
*I *4955:X O *D sky130_fd_sc_hd__dlygate4sd3_1
*CAP
1 *4113:A1 2.10034e-05
2 *4955:X 2.10034e-05
3 *4113:A1 *4113:S 8.8266e-05
4 *4113:A1 *4955:A 4.60584e-05
5 *4113:A0 *4113:A1 0.000164874
*RES
1 *4955:X *4113:A1 4.685 
*END

*D_NET *909 0.0036747
*CONN
*I *4115:A1 I *D sky130_fd_sc_hd__mux2_1
*I *4107:A0 I *D sky130_fd_sc_hd__mux2_1
*I *4956:X O *D sky130_fd_sc_hd__dlygate4sd3_1
*CAP
1 *4115:A1 0.000246351
2 *4107:A0 0.000305405
3 *4956:X 0.000312058
4 *909:12 0.000863814
5 *4107:A0 *4212:A2 4.78678e-05
6 *4107:A0 *4605:RESET_B 6.51658e-05
7 *4107:A0 *1007:41 8.65961e-05
8 *4107:A0 *1007:45 8.52845e-05
9 *4107:A0 *1007:53 1.05984e-05
10 *4115:A1 *4115:A0 4.82863e-05
11 *4115:A1 *1007:39 0.000461941
12 *4115:A1 *1007:41 0.00010978
13 *909:12 *4211:A_N 0.00046038
14 *909:12 *4211:B 1.34361e-05
15 *909:12 *4211:C 9.58502e-05
16 *909:12 *4956:A 0
17 *909:12 *1099:10 0
18 *4589:CLK *4107:A0 1.15688e-05
19 *4589:D *4107:A0 7.23533e-05
20 *4605:D *4115:A1 8.57024e-05
21 *4957:A *909:12 0.000292258
*RES
1 *4956:X *909:12 13.295 
2 *909:12 *4107:A0 10.385 
3 *909:12 *4115:A1 6.88 
*END

*D_NET *910 0.000361887
*CONN
*I *4597:D I *D sky130_fd_sc_hd__dfrtp_2
*I *4957:X O *D sky130_fd_sc_hd__dlygate4sd3_1
*CAP
1 *4597:D 0.000144283
2 *4957:X 0.000144283
3 *4589:D *4597:D 7.23602e-05
4 *4597:CLK *4597:D 9.60582e-07
*RES
1 *4957:X *4597:D 9.225 
*END

*D_NET *911 0.000781364
*CONN
*I *4115:A0 I *D sky130_fd_sc_hd__mux2_1
*I *4958:X O *D sky130_fd_sc_hd__dlygate4sd3_1
*CAP
1 *4115:A0 0.000222541
2 *4958:X 0.000222541
3 *4115:A0 *994:29 0.000247143
4 *4115:A0 *1007:39 4.08514e-05
5 *4115:A1 *4115:A0 4.82863e-05
6 *4543:CLK *4115:A0 0
7 *624:18 *4115:A0 0
*RES
1 *4958:X *4115:A0 11.25 
*END

*D_NET *912 0.000559681
*CONN
*I *4124:A0 I *D sky130_fd_sc_hd__mux2_1
*I *4959:X O *D sky130_fd_sc_hd__dlygate4sd3_1
*CAP
1 *4124:A0 0.000120739
2 *4959:X 0.000120739
3 *4124:A0 *4124:A1 4.66108e-05
4 *4124:A0 *982:34 0.000271592
*RES
1 *4959:X *4124:A0 5.72 
*END

*D_NET *913 0.000882216
*CONN
*I *4614:D I *D sky130_fd_sc_hd__dfrtp_2
*I *4960:X O *D sky130_fd_sc_hd__dlygate4sd3_1
*CAP
1 *4614:D 0.000283617
2 *4960:X 0.000283617
3 *5064:A *4614:D 3.51072e-05
4 *279:21 *4614:D 0.000246872
5 *626:97 *4614:D 3.30017e-05
*RES
1 *4960:X *4614:D 12.06 
*END

*D_NET *914 0.0107431
*CONN
*I *4190:A I *D sky130_fd_sc_hd__or2_2
*I *4189:B I *D sky130_fd_sc_hd__or3_2
*I *4159:B I *D sky130_fd_sc_hd__nor2_2
*I *4216:A I *D sky130_fd_sc_hd__nor2_2
*I *4249:A I *D sky130_fd_sc_hd__nor2_2
*I *4319:A1 I *D sky130_fd_sc_hd__o22a_2
*I *5093:X O *D sky130_fd_sc_hd__buf_2
*CAP
1 *4190:A 0.000197519
2 *4189:B 0.000155077
3 *4159:B 0
4 *4216:A 0
5 *4249:A 0
6 *4319:A1 0
7 *5093:X 0.000125521
8 *914:66 0.000380045
9 *914:57 0.000454245
10 *914:40 0.000892262
11 *914:29 0.00184183
12 *914:12 0.00150189
13 *4189:B *4150:B 2.49909e-05
14 *4190:A *4150:B 0.000114492
15 *4190:A *936:37 3.98952e-05
16 *4190:A *936:52 2.97004e-06
17 *914:29 *936:16 0.00134285
18 *914:40 *936:16 0.000310357
19 *914:57 *925:14 0.000230876
20 *914:57 *925:27 5.16418e-05
21 *914:66 *4150:B 5.23362e-05
22 *914:66 *936:37 3.04982e-05
23 *4170:A *4190:A 2.67275e-05
24 *4179:B *914:57 0.000140912
25 *4190:B *4190:A 0.00010978
26 *4192:B *4190:A 8.34281e-06
27 *4192:C *4190:A 4.82863e-05
28 *4192:D *4190:A 4.66108e-05
29 *4216:B *914:40 5.53249e-06
30 *4216:B *914:57 0.00012237
31 *4219:B *4190:A 0.000302687
32 *4228:A1 *4189:B 8.23457e-05
33 *4249:B *914:29 4.89395e-05
34 *4319:B1 *914:29 0.000130973
35 *4320:B1 *914:29 3.32275e-05
36 *4372:A *914:12 0.000140266
37 *4377:B *914:12 0.000106655
38 *4381:A *914:29 0.000122202
39 *4381:B *914:29 4.77807e-05
40 *4383:A *914:29 4.77807e-05
41 *4384:A *914:12 0.000120731
42 *4696:A *914:40 0.000139465
43 *4696:A *914:57 8.34369e-05
44 *4729:A *914:40 0.00014155
45 *4729:A *914:57 4.49328e-05
46 *289:49 *914:29 8.70881e-05
47 *306:12 *4189:B 2.0514e-05
48 *393:10 *914:29 4.77807e-05
49 *613:66 *914:57 8.65905e-05
50 *613:93 *4189:B 7.67415e-06
51 *613:93 *914:57 0.000145515
52 *847:39 *914:12 3.05811e-05
53 *869:45 *914:57 2.7881e-05
54 *869:45 *914:66 1.26548e-05
55 *880:37 *914:40 8.53113e-06
56 *880:37 *914:57 0.000417503
*RES
1 *5093:X *914:12 8.375 
2 *914:12 *4319:A1 1.6 
3 *914:12 *914:29 27.18 
4 *914:29 *4249:A 1.6 
5 *914:29 *914:40 12.5 
6 *914:40 *4216:A 3.6 
7 *914:40 *914:57 14.89 
8 *914:57 *4159:B 3.6 
9 *914:57 *914:66 0.87 
10 *914:66 *4189:B 5.43 
11 *914:66 *4190:A 8.655 
*END

*D_NET *915 0.000954609
*CONN
*I *4126:A0 I *D sky130_fd_sc_hd__mux2_1
*I *4961:X O *D sky130_fd_sc_hd__dlygate4sd3_1
*CAP
1 *4126:A0 0.000246783
2 *4961:X 0.000246783
3 *4126:A0 *991:62 7.35729e-05
4 *4126:A0 *991:66 2.16917e-05
5 *4126:A0 *994:50 0.000319167
6 *4126:A0 *1110:12 0
7 *4126:A0 *1110:18 4.66108e-05
*RES
1 *4961:X *4126:A0 12.705 
*END

*D_NET *916 0.00111883
*CONN
*I *4616:D I *D sky130_fd_sc_hd__dfrtp_2
*I *4962:X O *D sky130_fd_sc_hd__dlygate4sd3_1
*CAP
1 *4616:D 0.000279762
2 *4962:X 0.000279762
3 *4616:D *4118:A0 3.86529e-05
4 *4616:D *4311:B2 0.000234674
5 *4616:D *1023:43 8.98743e-05
6 *4311:C1 *4616:D 0.000123751
7 *4962:A *4616:D 7.23533e-05
*RES
1 *4962:X *4616:D 12.795 
*END

*D_NET *917 0.000656909
*CONN
*I *4084:A1 I *D sky130_fd_sc_hd__mux2_1
*I *4963:X O *D sky130_fd_sc_hd__dlygate4sd3_1
*CAP
1 *4084:A1 0.000156628
2 *4963:X 0.000156628
3 *4084:A1 *4752:A 7.23533e-05
4 *4084:A1 *1057:28 0.000271299
*RES
1 *4963:X *4084:A1 9.9 
*END

*D_NET *918 0.000896074
*CONN
*I *4127:A0 I *D sky130_fd_sc_hd__mux2_1
*I *4964:X O *D sky130_fd_sc_hd__dlygate4sd3_1
*CAP
1 *4127:A0 0.000190948
2 *4964:X 0.000190948
3 *4127:A0 *4127:A1 4.82863e-05
4 *4127:A0 *998:48 2.18022e-05
5 *4127:A0 *998:63 8.65905e-05
6 *891:26 *4127:A0 0.000357499
*RES
1 *4964:X *4127:A0 7.79 
*END

*D_NET *919 0.000710838
*CONN
*I *4617:D I *D sky130_fd_sc_hd__dfrtp_2
*I *4965:X O *D sky130_fd_sc_hd__dlygate4sd3_1
*CAP
1 *4617:D 0.000245082
2 *4965:X 0.000245082
3 *4617:D *4119:A1 8.53113e-06
4 *4617:D *4183:A1 1.91597e-05
5 *4363:B1 *4617:D 8.65905e-05
6 *4697:A *4617:D 0.000106393
7 *4979:A *4617:D 0
*RES
1 *4965:X *4617:D 11.505 
*END

*D_NET *920 0.000655236
*CONN
*I *4118:A0 I *D sky130_fd_sc_hd__mux2_1
*I *4966:X O *D sky130_fd_sc_hd__dlygate4sd3_1
*CAP
1 *4118:A0 0.000204482
2 *4966:X 0.000204482
3 *4118:A0 *4966:A 0
4 *4118:A0 *1023:43 0.000180675
5 *4616:D *4118:A0 3.86529e-05
6 *4962:A *4118:A0 1.65192e-05
7 *282:49 *4118:A0 1.04258e-05
*RES
1 *4966:X *4118:A0 10.905 
*END

*D_NET *921 0.00220994
*CONN
*I *4089:A0 I *D sky130_fd_sc_hd__mux2_1
*I *4097:A1 I *D sky130_fd_sc_hd__mux2_1
*I *4967:X O *D sky130_fd_sc_hd__dlygate4sd3_1
*CAP
1 *4089:A0 9.50647e-05
2 *4097:A1 0.000447484
3 *4967:X 0.00015055
4 *921:12 0.000693099
5 *4089:A0 *4089:S 0.00011964
6 *4097:A1 *4089:S 6.6564e-05
7 *4097:A1 *1003:16 0.00011964
8 *921:12 *5049:A 1.83847e-05
9 *921:12 *1003:10 4.40899e-05
10 *921:12 *1003:16 0
11 *4073:A1 *4097:A1 0.00019534
12 *4563:D *4097:A1 3.39667e-05
13 *4590:RESET_B *4097:A1 0.000144864
14 *4805:A *4097:A1 7.35813e-05
15 *271:6 *4097:A1 7.67415e-06
*RES
1 *4967:X *921:12 7.94 
2 *921:12 *4097:A1 15.05 
3 *921:12 *4089:A0 3.43 
*END

*D_NET *922 0.00038746
*CONN
*I *4104:A0 I *D sky130_fd_sc_hd__mux2_1
*I *4968:X O *D sky130_fd_sc_hd__dlygate4sd3_1
*CAP
1 *4104:A0 0.000105957
2 *4968:X 0.000105957
3 *4104:A0 *4146:A1 6.78637e-05
4 *4602:D *4104:A0 5.93963e-05
5 *4949:A *4104:A0 4.82863e-05
*RES
1 *4968:X *4104:A0 9.285 
*END

*D_NET *923 0.00109851
*CONN
*I *4091:A1 I *D sky130_fd_sc_hd__mux2_1
*I *4083:A0 I *D sky130_fd_sc_hd__mux2_1
*I *4969:X O *D sky130_fd_sc_hd__dlygate4sd3_1
*CAP
1 *4091:A1 0.000282904
2 *4083:A0 0.000142885
3 *4969:X 0
4 *923:4 0.000425789
5 *4083:A0 *4083:A1 9.52646e-05
6 *4091:A1 *4083:A1 0.000131791
7 *4091:A1 *4969:A 1.9872e-05
8 *4091:A1 *993:43 0
*RES
1 *4969:X *923:4 1.6 
2 *923:4 *4083:A0 3.43 
3 *923:4 *4091:A1 9.335 
*END

*D_NET *924 0.000422821
*CONN
*I *4573:D I *D sky130_fd_sc_hd__dfrtp_2
*I *4970:X O *D sky130_fd_sc_hd__dlygate4sd3_1
*CAP
1 *4573:D 0.000114073
2 *4970:X 0.000114073
3 *4565:D *4573:D 9.30717e-05
4 *4581:CLK *4573:D 7.06865e-05
5 *623:58 *4573:D 3.09164e-05
*RES
1 *4970:X *4573:D 9.12 
*END

*D_NET *925 0.00280206
*CONN
*I *4207:B2 I *D sky130_fd_sc_hd__o22a_2
*I *4150:B I *D sky130_fd_sc_hd__nor2_2
*I *4159:A I *D sky130_fd_sc_hd__nor2_2
*I *4179:A I *D sky130_fd_sc_hd__or2_2
*I *5058:X O *D sky130_fd_sc_hd__clkbuf_2
*CAP
1 *4207:B2 0
2 *4150:B 0.00024324
3 *4159:A 0
4 *4179:A 0
5 *5058:X 0.000189437
6 *925:27 0.000420324
7 *925:14 0.000235886
8 *925:8 0.000248239
9 *4150:B *936:52 0
10 *925:27 *936:37 7.3664e-05
11 *4169:B *4150:B 0
12 *4189:A *4150:B 4.18603e-06
13 *4189:B *4150:B 2.49909e-05
14 *4190:A *4150:B 0.000114492
15 *4206:C *925:27 1.91597e-05
16 *4207:B1 *925:14 0.000185405
17 *4696:A *925:14 2.42236e-05
18 *306:12 *4150:B 1.73877e-05
19 *325:6 *925:27 0.000122331
20 *613:93 *4150:B 4.66826e-05
21 *858:64 *925:27 2.49909e-05
22 *869:45 *4150:B 0.000179015
23 *869:45 *925:27 3.18137e-05
24 *903:31 *925:8 0.000196376
25 *903:44 *925:8 6.53624e-05
26 *914:57 *925:14 0.000230876
27 *914:57 *925:27 5.16418e-05
28 *914:66 *4150:B 5.23362e-05
*RES
1 *5058:X *925:8 4.825 
2 *925:8 *925:14 6.655 
3 *925:14 *4179:A 1.6 
4 *925:14 *925:27 7.465 
5 *925:27 *4159:A 1.6 
6 *925:27 *4150:B 10.685 
7 *925:8 *4207:B2 1.6 
*END

*D_NET *926 0.00165336
*CONN
*I *4122:A1 I *D sky130_fd_sc_hd__mux2_1
*I *4114:A0 I *D sky130_fd_sc_hd__mux2_1
*I *4971:X O *D sky130_fd_sc_hd__dlygate4sd3_1
*CAP
1 *4122:A1 0.00025562
2 *4114:A0 0.000127313
3 *4971:X 0.00014757
4 *926:8 0.000530503
5 *4114:A0 *4114:A1 4.89295e-05
6 *4114:A0 *4114:S 5.56629e-05
7 *4122:A1 *4114:S 0.000442739
8 *4122:A1 *4180:B 1.10085e-05
9 *4122:A1 *4181:C 2.23589e-05
10 *4122:A1 *1012:48 1.16578e-05
11 *4612:D *4122:A1 0
12 *705:10 *4122:A1 0
*RES
1 *4971:X *926:8 5.085 
2 *926:8 *4114:A0 5.955 
3 *926:8 *4122:A1 9.615 
*END

*D_NET *927 0.000607996
*CONN
*I *4604:D I *D sky130_fd_sc_hd__dfrtp_2
*I *4972:X O *D sky130_fd_sc_hd__dlygate4sd3_1
*CAP
1 *4604:D 0.000126372
2 *4972:X 0.000126372
3 *4604:D *4114:A1 4.43871e-06
4 *4604:D *4180:D 1.52184e-05
5 *4604:D *1098:10 3.67779e-05
6 *4604:D *1114:8 9.14049e-05
7 *4596:RESET_B *4604:D 0.000121023
8 *4972:A *4604:D 1.83756e-05
9 *617:14 *4604:D 6.21825e-05
10 *617:16 *4604:D 5.83121e-06
*RES
1 *4972:X *4604:D 9.915 
*END

*D_NET *928 0.00400805
*CONN
*I *4117:A0 I *D sky130_fd_sc_hd__mux2_1
*I *4125:A1 I *D sky130_fd_sc_hd__mux2_1
*I *4973:X O *D sky130_fd_sc_hd__dlygate4sd3_1
*CAP
1 *4117:A0 7.01734e-05
2 *4125:A1 0.000495579
3 *4973:X 0.000327304
4 *928:10 0.000893057
5 *4117:A0 *1101:27 0.000198939
6 *4125:A1 *4125:A0 0.000340864
7 *4125:A1 *4273:B2 8.29003e-05
8 *4125:A1 *4977:A 0.000248254
9 *928:10 *4273:B2 0.000306916
10 *928:10 *985:99 0.000192509
11 *928:10 *1043:26 0
12 *4693:A *4125:A1 1.88656e-05
13 *4693:A *928:10 0.00042429
14 *4699:A *4125:A1 0.000321802
15 *4974:A *4117:A0 8.65961e-05
*RES
1 *4973:X *928:10 10.635 
2 *928:10 *4125:A1 12.81 
3 *928:10 *4117:A0 5.43 
*END

*D_NET *929 0.000399282
*CONN
*I *4607:D I *D sky130_fd_sc_hd__dfrtp_2
*I *4974:X O *D sky130_fd_sc_hd__dlygate4sd3_1
*CAP
1 *4607:D 5.89064e-05
2 *4974:X 5.89064e-05
3 *4607:D *4070:A1 0.000193806
4 *4607:D *4615:RESET_B 2.04748e-05
5 *4607:CLK *4607:D 6.71882e-05
*RES
1 *4974:X *4607:D 5.03 
*END

*D_NET *930 0.000858638
*CONN
*I *4100:A1 I *D sky130_fd_sc_hd__mux2_1
*I *4975:X O *D sky130_fd_sc_hd__dlygate4sd3_1
*CAP
1 *4100:A1 0.00024581
2 *4975:X 0.00024581
3 *4100:A1 *4245:A1 6.37579e-05
4 *4100:A1 *1057:28 7.06865e-05
5 *4100:A1 *1092:10 7.23602e-05
6 *4065:A0 *4100:A1 0.000160213
7 *4247:C1 *4100:A1 0
*RES
1 *4975:X *4100:A1 11.595 
*END

*D_NET *931 0.00781809
*CONN
*I *4070:A1 I *D sky130_fd_sc_hd__mux2_1
*I *3987:A0 I *D sky130_fd_sc_hd__mux2_1
*I *4976:X O *D sky130_fd_sc_hd__dlygate4sd3_1
*CAP
1 *4070:A1 0.00261063
2 *3987:A0 0.000316349
3 *4976:X 0
4 *931:6 0.00292698
5 *3987:A0 *3987:A1 0.00012657
6 *3987:A0 *3987:S 1.61831e-05
7 *3987:A0 *4976:A 6.74079e-05
8 *3987:A0 *1037:65 0
9 *4070:A1 *4109:A0 4.66108e-05
10 *4070:A1 *4109:S 4.0843e-05
11 *4070:A1 *4268:A1 0
12 *4070:A1 *4591:RESET_B 0.00037248
13 *4070:A1 *4607:RESET_B 8.24372e-05
14 *4070:A1 *4615:RESET_B 4.36645e-05
15 *4070:A1 *4994:A 2.52034e-05
16 *4070:A1 *1006:22 0
17 *4070:A1 *1031:14 0
18 *4070:A1 *1031:88 0.000119066
19 *4070:A1 *1037:65 0
20 *4070:A1 *1043:20 6.19997e-05
21 *4070:A1 *1043:26 0.000203178
22 *4070:A1 *1093:10 0.00015541
23 *4070:A1 *1101:27 8.65961e-05
24 *4273:A3 *4070:A1 7.20786e-05
25 *4509:CLK *3987:A0 0
26 *4583:D *4070:A1 0.000167924
27 *4607:CLK *4070:A1 1.19928e-05
28 *4607:D *4070:A1 0.000193806
29 *4941:A *4070:A1 7.06865e-05
*RES
1 *4976:X *931:6 3.6 
2 *931:6 *3987:A0 8.76 
3 *931:6 *4070:A1 46.01 
*END

*D_NET *932 0.00114559
*CONN
*I *4125:A0 I *D sky130_fd_sc_hd__mux2_1
*I *4977:X O *D sky130_fd_sc_hd__dlygate4sd3_1
*CAP
1 *4125:A0 0.000145965
2 *4977:X 0.000145965
3 *4125:A0 *3987:S 0.000163204
4 *4125:A0 *4125:S 0.000349592
5 *4125:A1 *4125:A0 0.000340864
*RES
1 *4977:X *4125:A0 8.825 
*END

*D_NET *933 0.00102109
*CONN
*I *4119:A0 I *D sky130_fd_sc_hd__mux2_1
*I *4978:X O *D sky130_fd_sc_hd__dlygate4sd3_1
*CAP
1 *4119:A0 0.000288181
2 *4978:X 0.000288181
3 *4119:A0 *4609:D 4.19967e-05
4 *4119:A0 *985:16 9.23551e-05
5 *4363:B1 *4119:A0 0.00023635
6 *4601:D *4119:A0 7.4027e-05
7 *4979:A *4119:A0 0
*RES
1 *4978:X *4119:A0 12.285 
*END

*D_NET *934 0.000820896
*CONN
*I *4609:D I *D sky130_fd_sc_hd__dfrtp_2
*I *4979:X O *D sky130_fd_sc_hd__dlygate4sd3_1
*CAP
1 *4609:D 0.00019361
2 *4979:X 0.00019361
3 *4609:D *985:16 0
4 *4609:D *1095:10 2.41231e-05
5 *4119:A0 *4609:D 4.19967e-05
6 *4697:A *4609:D 8.46818e-05
7 *4979:A *4609:D 0.000282874
*RES
1 *4979:X *4609:D 11.415 
*END

*D_NET *935 0.000355274
*CONN
*I *4062:A1 I *D sky130_fd_sc_hd__mux2_1
*I *4980:X O *D sky130_fd_sc_hd__dlygate4sd3_1
*CAP
1 *4062:A1 0.000122372
2 *4980:X 0.000122372
3 *4062:A1 *4062:A0 8.23457e-05
4 *4062:S *4062:A1 2.8185e-05
*RES
1 *4980:X *4062:A1 4.685 
*END

*D_NET *936 0.0106195
*CONN
*I *4217:A I *D sky130_fd_sc_hd__nor2_2
*I *4188:A I *D sky130_fd_sc_hd__nor2_2
*I *4150:A I *D sky130_fd_sc_hd__nor2_2
*I *4169:A I *D sky130_fd_sc_hd__or2_2
*I *4192:A_N I *D sky130_fd_sc_hd__and4b_2
*I *4250:A I *D sky130_fd_sc_hd__or2_2
*I *5059:X O *D sky130_fd_sc_hd__buf_2
*CAP
1 *4217:A 0.000210079
2 *4188:A 3.76205e-05
3 *4150:A 0
4 *4169:A 0.000144694
5 *4192:A_N 0.000219811
6 *4250:A 5.96236e-05
7 *5059:X 0.00180271
8 *936:52 0.000310625
9 *936:37 0.000597627
10 *936:33 0.0006794
11 *936:16 0.00208215
12 *4150:B *936:52 0
13 *4169:B *4169:A 3.293e-05
14 *4190:A *936:37 3.98952e-05
15 *4190:A *936:52 2.97004e-06
16 *4192:C *4192:A_N 4.82863e-05
17 *4192:C *4217:A 0.000360116
18 *4219:B *4192:A_N 4.82863e-05
19 *4249:B *936:16 2.69217e-05
20 *4372:A *936:16 0
21 *4377:A *936:16 9.21064e-05
22 *4380:A *936:16 0
23 *4381:A *936:16 6.81824e-05
24 *4696:A *936:37 0.000665545
25 *4729:A *936:16 0.000163019
26 *4729:A *936:33 0.000179008
27 *4729:A *936:37 0
28 *4729:A *936:52 0
29 *361:6 *4188:A 0.0001249
30 *361:6 *936:33 4.66108e-05
31 *362:10 *936:16 6.73751e-05
32 *362:10 *936:33 6.95335e-05
33 *430:16 *936:16 7.4027e-05
34 *615:134 *4169:A 0.000218853
35 *615:134 *936:52 8.65961e-05
36 *869:39 *4188:A 7.45031e-05
37 *869:39 *936:33 0.000107424
38 *869:45 *936:37 0
39 *880:37 *936:33 0.000120655
40 *914:29 *936:16 0.00134285
41 *914:40 *936:16 0.000310357
42 *914:66 *936:37 3.04982e-05
43 *925:27 *936:37 7.3664e-05
*RES
1 *5059:X *936:16 40.705 
2 *936:16 *4250:A 4.5 
3 *936:16 *936:33 7.01 
4 *936:33 *936:37 12.05 
5 *936:37 *4192:A_N 4.05 
6 *936:37 *936:52 4.94 
7 *936:52 *4169:A 4.945 
8 *936:52 *4150:A 1.6 
9 *936:33 *4188:A 3.1 
10 *4192:A_N *4217:A 7.115 
*END

*D_NET *937 0.000420127
*CONN
*I *4400:A1 I *D sky130_fd_sc_hd__a22o_2
*I *4981:X O *D sky130_fd_sc_hd__dlygate4sd3_1
*CAP
1 *4400:A1 0.000175315
2 *4981:X 0.000175315
3 *4400:B1 *4400:A1 2.88357e-05
4 *4906:A *4400:A1 4.06619e-05
*RES
1 *4981:X *4400:A1 5.39 
*END

*D_NET *938 0.00181033
*CONN
*I *4111:A1 I *D sky130_fd_sc_hd__mux2_1
*I *4103:A0 I *D sky130_fd_sc_hd__mux2_1
*I *4982:X O *D sky130_fd_sc_hd__dlygate4sd3_1
*CAP
1 *4111:A1 0.000251991
2 *4103:A0 0.000137859
3 *4982:X 3.72886e-05
4 *938:6 0.000427139
5 *4103:A0 *4185:A1 7.16847e-05
6 *4111:A1 *4111:S 9.50342e-06
7 *4111:A1 *4360:A2 0.000236291
8 *4111:A1 *4361:A1 9.05592e-05
9 *938:6 *4185:A1 1.32026e-05
10 *4103:A1 *4103:A0 4.89395e-05
11 *4362:C1 *4111:A1 0.000202148
12 *618:108 *4111:A1 0.000110804
13 *618:154 *4111:A1 0.000172915
*RES
1 *4982:X *938:6 2.05 
2 *938:6 *4103:A0 3.43 
3 *938:6 *4111:A1 13.1 
*END

*D_NET *939 0.000412419
*CONN
*I *4088:A0 I *D sky130_fd_sc_hd__mux2_1
*I *4983:X O *D sky130_fd_sc_hd__dlygate4sd3_1
*CAP
1 *4088:A0 8.25909e-05
2 *4983:X 8.25909e-05
3 *4088:A0 *4983:A 0.000198945
4 *4984:A *4088:A0 4.82919e-05
*RES
1 *4983:X *4088:A0 5.03 
*END

*D_NET *940 0.000842639
*CONN
*I *4578:D I *D sky130_fd_sc_hd__dfrtp_2
*I *4984:X O *D sky130_fd_sc_hd__dlygate4sd3_1
*CAP
1 *4578:D 0.000269799
2 *4984:X 0.000269799
3 *4578:D *1013:42 0.000110483
4 *4491:RESET_B *4578:D 0.00012657
5 *285:38 *4578:D 0
6 *289:18 *4578:D 6.59891e-05
*RES
1 *4984:X *4578:D 11.76 
*END

*D_NET *941 0.000368097
*CONN
*I *4056:A1 I *D sky130_fd_sc_hd__mux2_1
*I *4985:X O *D sky130_fd_sc_hd__dlygate4sd3_1
*CAP
1 *4056:A1 0.000101612
2 *4985:X 0.000101612
3 *4056:A1 *3991:S 0.000164874
*RES
1 *4985:X *4056:A1 4.685 
*END

*D_NET *942 0.000386115
*CONN
*I *4058:A1 I *D sky130_fd_sc_hd__mux2_1
*I *4986:X O *D sky130_fd_sc_hd__dlygate4sd3_1
*CAP
1 *4058:A1 0.000176264
2 *4986:X 0.000176264
3 *4058:A1 *4058:A0 5.83121e-06
4 *4063:S *4058:A1 1.02884e-05
5 *275:81 *4058:A1 1.74678e-05
*RES
1 *4986:X *4058:A1 5.03 
*END

*D_NET *943 0.000410448
*CONN
*I *4120:A0 I *D sky130_fd_sc_hd__mux2_1
*I *4987:X O *D sky130_fd_sc_hd__dlygate4sd3_1
*CAP
1 *4120:A0 4.02697e-05
2 *4987:X 4.02697e-05
3 *4120:A0 *4120:S 8.65961e-05
4 *4120:A0 *982:34 0.000198945
5 *4120:A0 *983:20 4.43682e-05
*RES
1 *4987:X *4120:A0 5.03 
*END

*D_NET *944 0.00058586
*CONN
*I *4122:A0 I *D sky130_fd_sc_hd__mux2_1
*I *4988:X O *D sky130_fd_sc_hd__dlygate4sd3_1
*CAP
1 *4122:A0 0.000205679
2 *4988:X 0.000205679
3 *4122:A0 *4181:C 0.000161467
4 *4122:A0 *1012:48 0
5 *722:52 *4122:A0 1.30349e-05
*RES
1 *4988:X *4122:A0 10.005 
*END

*D_NET *945 0.00211761
*CONN
*I *4086:A1 I *D sky130_fd_sc_hd__mux2_1
*I *4989:X O *D sky130_fd_sc_hd__dlygate4sd3_1
*CAP
1 *4086:A1 0.00036706
2 *4989:X 0.00036706
3 *4086:A1 *990:22 0.000140905
4 *4086:A1 *990:30 0.00065309
5 *4086:A1 *1031:53 0
6 *4086:A1 *1031:63 0
7 *4086:A1 *1078:10 0.000365327
8 *4086:A1 *1078:23 6.38291e-05
9 *614:66 *4086:A1 0.000160338
*RES
1 *4989:X *4086:A1 17.715 
*END

*D_NET *946 0.000881831
*CONN
*I *4576:D I *D sky130_fd_sc_hd__dfrtp_2
*I *4990:X O *D sky130_fd_sc_hd__dlygate4sd3_1
*CAP
1 *4576:D 0.000400493
2 *4990:X 0.000400493
3 *4576:D *4094:A0 0
4 *4584:CLK *4576:D 8.08439e-05
*RES
1 *4990:X *4576:D 13.545 
*END

*D_NET *947 0.0188379
*CONN
*I *3991:S I *D sky130_fd_sc_hd__mux2_1
*I *3992:S I *D sky130_fd_sc_hd__mux2_1
*I *3998:S I *D sky130_fd_sc_hd__mux2_1
*I *3993:S I *D sky130_fd_sc_hd__mux2_1
*I *3997:S I *D sky130_fd_sc_hd__mux2_1
*I *5060:X O *D sky130_fd_sc_hd__buf_4
*CAP
1 *3991:S 0.000882606
2 *3992:S 2.52678e-05
3 *3998:S 0
4 *3993:S 4.28826e-05
5 *3997:S 0.00147903
6 *5060:X 0.00094461
7 *947:34 0.00329405
8 *947:26 0.00252872
9 *947:18 0.00129003
10 *947:10 0.0023354
11 *3991:S *4048:A0 0.000158965
12 *3992:S *987:59 2.49909e-05
13 *3993:S *4177:A2 1.94723e-05
14 *3997:S *4002:A1 0.000201645
15 *3997:S *4177:A2 0.000161635
16 *3997:S *1037:12 6.62684e-05
17 *947:10 *4155:C1 0.000119461
18 *947:10 *4788:A 0.000119285
19 *947:10 *5055:A 0.000445791
20 *947:10 *984:46 0
21 *947:10 *1013:107 0
22 *947:10 *1021:70 0
23 *947:10 *1047:10 0.000338982
24 *947:18 *4057:A1 5.83121e-06
25 *947:18 *4788:A 0.000109441
26 *947:18 *984:46 0
27 *947:18 *987:59 0.000270912
28 *947:34 *4492:RESET_B 9.76833e-05
29 *947:34 *4505:RESET_B 0.00011627
30 *3992:A0 *947:26 0.000116165
31 *3993:A0 *947:34 5.0751e-05
32 *3998:A1 *947:26 0.000440129
33 *4026:A0 *947:26 4.93402e-05
34 *4026:S *947:26 0.000723314
35 *4048:A1 *3991:S 1.91597e-05
36 *4048:S *3991:S 0.000261326
37 *4056:A0 *3991:S 0.000155429
38 *4056:A1 *3991:S 0.000164874
39 *4056:S *3991:S 2.66586e-05
40 *4158:A3 *947:26 0.000155352
41 *4362:B2 *947:26 0
42 *4369:A1 *947:34 1.83756e-05
43 *4369:B1 *947:34 1.63135e-05
44 *4369:B2 *947:34 2.75145e-05
45 *4369:C1 *947:34 0.000131658
46 *4374:A *947:34 1.5815e-05
47 *4491:D *947:26 0
48 *4499:D *947:10 0.000153547
49 *4521:RESET_B *947:26 0
50 *4539:D *3991:S 5.05521e-05
51 *4546:D *3991:S 0.000158072
52 *4704:A *947:10 0
53 *4704:A *947:18 0
54 *4717:A *947:10 8.09986e-05
55 *4806:A *947:34 6.96579e-05
56 *4889:A *3997:S 8.53011e-05
57 *4985:A *3991:S 0.000122331
58 *5060:A *947:10 0
59 *265:6 *947:10 0.000142661
60 *266:10 *947:10 0
61 *274:22 *3991:S 0.000293604
62 *305:16 *947:26 1.00941e-05
63 *618:51 *947:26 7.36562e-05
64 *618:51 *947:34 3.05373e-05
65 *625:10 *947:10 8.61056e-05
66 *625:20 *947:10 0
67 *891:26 *947:26 1.07797e-05
68 *902:51 *3991:S 1.85674e-05
*RES
1 *5060:X *947:10 24.24 
2 *947:10 *947:18 11.075 
3 *947:18 *947:26 18.98 
4 *947:26 *947:34 25.42 
5 *947:34 *3997:S 26.52 
6 *947:34 *3993:S 4.215 
7 *947:26 *3998:S 3.6 
8 *947:18 *3992:S 2.05 
9 *947:10 *3991:S 21.345 
*END

*D_NET *948 0.00110503
*CONN
*I *4111:A0 I *D sky130_fd_sc_hd__mux2_1
*I *4991:X O *D sky130_fd_sc_hd__dlygate4sd3_1
*CAP
1 *4111:A0 0.000264773
2 *4991:X 0.000264773
3 *4111:A0 *4111:S 0.000180576
4 *4111:A0 *4365:B1 0
5 *4111:A0 *985:16 4.92105e-05
6 *4362:B1 *4111:A0 2.82121e-05
7 *4601:CLK *4111:A0 0.000171934
8 *611:23 *4111:A0 2.77283e-05
9 *618:165 *4111:A0 0.000117825
*RES
1 *4991:X *4111:A0 12.945 
*END

*D_NET *949 0.000603894
*CONN
*I *4094:A0 I *D sky130_fd_sc_hd__mux2_1
*I *4992:X O *D sky130_fd_sc_hd__dlygate4sd3_1
*CAP
1 *4094:A0 0.000261525
2 *4992:X 0.000261525
3 *4094:A0 *990:22 8.08439e-05
4 *4576:D *4094:A0 0
5 *4592:D *4094:A0 0
*RES
1 *4992:X *4094:A0 11.25 
*END

*D_NET *950 0.000177155
*CONN
*I *4584:D I *D sky130_fd_sc_hd__dfrtp_2
*I *4993:X O *D sky130_fd_sc_hd__dlygate4sd3_1
*CAP
1 *4584:D 6.40178e-05
2 *4993:X 6.40178e-05
3 *4584:CLK *4584:D 4.91189e-05
4 *614:92 *4584:D 0
*RES
1 *4993:X *4584:D 8.58 
*END

*D_NET *951 0.00150175
*CONN
*I *4101:A1 I *D sky130_fd_sc_hd__mux2_1
*I *4093:A0 I *D sky130_fd_sc_hd__mux2_1
*I *4994:X O *D sky130_fd_sc_hd__dlygate4sd3_1
*CAP
1 *4101:A1 0
2 *4093:A0 0.000185652
3 *4994:X 0.000266229
4 *951:12 0.00045188
5 *4093:A0 *4093:A1 0.000234354
6 *4093:A0 *990:85 3.3485e-05
7 *951:12 *4998:A 0
8 *4101:A0 *4093:A0 4.89295e-05
9 *4101:A0 *951:12 0.000180795
10 *4591:D *4093:A0 8.51879e-05
11 *4999:A *4093:A0 1.52352e-05
*RES
1 *4994:X *951:12 9.335 
2 *951:12 *4093:A0 5.515 
3 *951:12 *4101:A1 1.6 
*END

*D_NET *952 0.00040804
*CONN
*I *4087:A0 I *D sky130_fd_sc_hd__mux2_1
*I *4995:X O *D sky130_fd_sc_hd__dlygate4sd3_1
*CAP
1 *4087:A0 8.32786e-05
2 *4995:X 8.32786e-05
3 *4087:A0 *985:34 0.000241483
*RES
1 *4995:X *4087:A0 5.375 
*END

*D_NET *953 0.000500629
*CONN
*I *4577:D I *D sky130_fd_sc_hd__dfrtp_2
*I *4996:X O *D sky130_fd_sc_hd__dlygate4sd3_1
*CAP
1 *4577:D 0.000115292
2 *4996:X 0.000115292
3 *4577:D *4095:A1 6.1197e-05
4 *4577:D *4995:A 5.50141e-05
5 *4074:A1 *4577:D 8.35118e-05
6 *4577:CLK *4577:D 7.03219e-05
*RES
1 *4996:X *4577:D 9.375 
*END

*D_NET *954 0.0009787
*CONN
*I *3976:A1 I *D sky130_fd_sc_hd__a21bo_2
*I *4997:X O *D sky130_fd_sc_hd__dlygate4sd3_1
*CAP
1 *3976:A1 0.000172853
2 *4997:X 0.000172853
3 *3976:A1 *3968:A 4.66108e-05
4 *3976:A1 *3968:C 4.66108e-05
5 *3976:A1 *3968:D 2.92496e-05
6 *3976:A1 *3983:B 4.66108e-05
7 *3976:A1 *1055:10 9.54469e-05
8 *3969:C *3976:A1 0.000122331
9 *3976:B1_N *3976:A1 3.09088e-05
10 *4680:RESET_B *3976:A1 9.90606e-05
11 *694:99 *3976:A1 0.000116165
*RES
1 *4997:X *3976:A1 11.79 
*END

*D_NET *955 0.00170062
*CONN
*I *4093:A1 I *D sky130_fd_sc_hd__mux2_1
*I *4085:A0 I *D sky130_fd_sc_hd__mux2_1
*I *4998:X O *D sky130_fd_sc_hd__dlygate4sd3_1
*CAP
1 *4093:A1 0.000134803
2 *4085:A0 2.47258e-05
3 *4998:X 0.000268705
4 *955:12 0.000428233
5 *4085:A0 *4085:A1 1.16578e-05
6 *4093:A1 *4085:A1 0.000185398
7 *4093:A1 *4093:S 8.52845e-05
8 *4093:A1 *990:76 1.42807e-05
9 *4093:A1 *990:85 8.49205e-05
10 *955:12 *4085:A1 3.66286e-05
11 *955:12 *4085:S 4.89295e-05
12 *4093:A0 *4093:A1 0.000234354
13 *4999:A *4085:A0 4.9253e-06
14 *4999:A *4093:A1 0.000137776
*RES
1 *4998:X *955:12 9.755 
2 *955:12 *4085:A0 2.05 
3 *955:12 *4093:A1 10.28 
*END

*D_NET *956 0.000599259
*CONN
*I *4575:D I *D sky130_fd_sc_hd__dfrtp_2
*I *4999:X O *D sky130_fd_sc_hd__dlygate4sd3_1
*CAP
1 *4575:D 9.63322e-05
2 *4999:X 9.63322e-05
3 *4575:D *4575:RESET_B 0.000198423
4 *4560:CLK *4575:D 0.0001151
5 *4583:D *4575:D 9.30717e-05
*RES
1 *4999:X *4575:D 10.155 
*END

*D_NET *957 0.0115523
*CONN
*I *4068:A1 I *D sky130_fd_sc_hd__mux2_1
*I *4486:A0 I *D sky130_fd_sc_hd__mux2_1
*I *5000:X O *D sky130_fd_sc_hd__dlygate4sd3_1
*CAP
1 *4068:A1 0.000824826
2 *4486:A0 0.00224004
3 *5000:X 0
4 *957:4 0.00306487
5 *4068:A1 *4482:S 0.000178331
6 *4068:A1 *1000:16 0.000344737
7 *4068:A1 *1000:22 0.000431333
8 *4068:A1 *1001:44 0.000318501
9 *4486:A0 *4486:S 9.5799e-06
10 *4486:A0 *5000:A 0.000181005
11 *4486:A0 *994:10 0.000113816
12 *4486:A0 *1017:12 0
13 *4486:A0 *1024:10 4.82919e-05
14 *3999:C *4486:A0 0.00011731
15 *4000:A0 *4486:A0 0.000203178
16 *4000:S *4486:A0 0.000257644
17 *4019:A0 *4486:A0 8.65905e-05
18 *4065:A0 *4068:A1 8.95933e-05
19 *4065:A1 *4068:A1 0.000666243
20 *4068:A0 *4068:A1 4.99619e-05
21 *4482:A0 *4068:A1 0.000279787
22 *4482:A1 *4068:A1 0.000506643
23 *4482:A1 *4486:A0 0.000281451
24 *4483:A0 *4068:A1 0.000312964
25 *4498:D *4486:A0 0.000163204
26 *4685:D *4068:A1 8.65905e-05
27 *4748:A *4068:A1 0.000185907
28 *4866:A *4486:A0 4.82863e-05
29 *5027:A *4486:A0 8.06286e-05
30 *725:6 *4486:A0 4.82863e-05
31 *902:30 *4486:A0 0.000332675
*RES
1 *5000:X *957:4 1.6 
2 *957:4 *4486:A0 41.12 
3 *957:4 *4068:A1 26.215 
*END

*D_NET *958 0.0379666
*CONN
*I *4141:A2 I *D sky130_fd_sc_hd__o22ai_2
*I *4178:B1 I *D sky130_fd_sc_hd__o32ai_2
*I *4237:B1 I *D sky130_fd_sc_hd__o32a_2
*I *4286:A2 I *D sky130_fd_sc_hd__o22a_2
*I *4215:A2_N I *D sky130_fd_sc_hd__a2bb2o_2
*I *4204:B1 I *D sky130_fd_sc_hd__o32ai_4
*I *4273:B1 I *D sky130_fd_sc_hd__o32ai_2
*I *4316:A2 I *D sky130_fd_sc_hd__o22ai_2
*I *4336:A2 I *D sky130_fd_sc_hd__o22ai_2
*I *4148:B1 I *D sky130_fd_sc_hd__o32a_2
*I *4740:X O *D sky130_fd_sc_hd__clkdlybuf4s25_1
*CAP
1 *4141:A2 3.21814e-05
2 *4178:B1 0.000726136
3 *4237:B1 1.59748e-05
4 *4286:A2 3.5355e-05
5 *4215:A2_N 0.00227875
6 *4204:B1 1.68577e-05
7 *4273:B1 0.00020481
8 *4316:A2 0.000188756
9 *4336:A2 0.000397729
10 *4148:B1 0.000169983
11 *4740:X 0.000318039
12 *958:142 0.000758317
13 *958:109 0.00309481
14 *958:74 0.0012687
15 *958:58 0.0010212
16 *958:52 0.00168029
17 *958:35 0.00154892
18 *958:33 0.00190207
19 *958:29 0.00409278
20 *958:8 0.00307552
21 *4141:A2 *987:61 5.47418e-05
22 *4148:B1 *4148:B2 0.000337972
23 *4148:B1 *969:33 3.79555e-05
24 *4148:B1 *983:20 4.16006e-05
25 *4178:B1 *4172:B 0.000117866
26 *4178:B1 *987:61 0.000695369
27 *4215:A2_N *4215:A1_N 3.90291e-05
28 *4215:A2_N *4551:RESET_B 4.61647e-05
29 *4215:A2_N *5051:A 1.4399e-05
30 *4215:A2_N *1034:14 0.000326063
31 *4237:B1 *1042:61 5.5345e-05
32 *4273:B1 *4268:B2 4.77769e-05
33 *4273:B1 *991:12 0.000285535
34 *4273:B1 *991:62 9.17974e-05
35 *4273:B1 *1043:59 0
36 *4286:A2 *1040:18 0
37 *4316:A2 *4316:A1 8.53011e-05
38 *4336:A2 *4496:RESET_B 0.000133082
39 *4336:A2 *982:162 0.000113411
40 *4336:A2 *1042:61 0.000293442
41 *958:29 *969:33 0.00326705
42 *958:35 *1042:61 0.000837685
43 *958:74 *3994:A1 3.96737e-05
44 *958:74 *4330:B 4.71087e-05
45 *958:74 *1006:33 8.18098e-05
46 *958:74 *1008:19 0.000302255
47 *958:74 *1008:27 2.48249e-05
48 *958:74 *1015:32 0
49 *958:74 *1015:40 0
50 *958:109 *1040:18 0
51 *3994:A0 *958:74 0.000201503
52 *3994:S *958:58 7.40446e-05
53 *3994:S *958:74 0.000532851
54 *3994:S *958:109 0.000354611
55 *4033:A1 *958:109 0
56 *4141:A1 *4141:A2 0
57 *4149:A3 *4148:B1 0.000191537
58 *4178:A1 *4178:B1 8.8266e-05
59 *4178:A3 *4178:B1 4.66108e-05
60 *4198:A *958:109 0.000104144
61 *4204:A1 *958:109 0
62 *4204:A2 *958:109 2.66999e-05
63 *4204:A3 *4204:B1 9.53428e-06
64 *4204:A3 *958:58 2.75229e-05
65 *4204:A3 *958:74 0.000594801
66 *4231:B2 *958:109 0
67 *4237:B2 *4237:B1 6.21133e-05
68 *4237:B2 *958:35 0.0001642
69 *4243:B1 *958:29 0.000860718
70 *4273:A2 *4273:B1 2.01737e-05
71 *4286:A1 *4215:A2_N 1.1578e-05
72 *4286:A1 *4286:A2 6.07822e-05
73 *4286:A1 *958:109 6.37505e-05
74 *4316:B2 *4316:A2 3.5678e-06
75 *4336:A1 *4336:A2 0.000491163
76 *4526:D *958:109 0
77 *4541:CLK *958:74 0.000387891
78 *4544:D *958:74 8.48458e-05
79 *4551:CLK *4215:A2_N 5.05521e-05
80 *4693:A *4273:B1 0.000320951
81 *4740:A *4148:B1 2.18287e-05
82 *4811:A *958:35 0
83 *4903:A *958:109 6.55406e-05
84 *4947:A *958:35 0.000143266
85 *4952:A *958:109 0
86 *4980:A *4336:A2 0.000221366
87 *272:57 *958:35 0
88 *272:149 *4178:B1 9.48971e-05
89 *272:149 *4336:A2 7.53115e-05
90 *274:22 *4141:A2 0
91 *274:22 *4178:B1 0
92 *280:34 *4148:B1 1.33293e-05
93 *280:95 *4336:A2 2.62526e-05
94 *285:38 *958:29 0.0013711
95 *305:16 *958:29 0.000355931
96 *349:16 *958:52 0.000135187
97 *349:16 *958:109 1.88656e-05
98 *360:16 *958:29 0
99 *360:16 *958:33 0
100 *612:68 *958:35 0
101 *614:170 *4316:A2 0.000123805
102 *614:170 *958:74 0.00022102
103 *621:10 *958:35 0
104 *621:12 *4336:A2 0
105 *642:10 *958:35 0
*RES
1 *4740:X *958:8 6.81 
2 *958:8 *4148:B1 8.4225 
3 *958:8 *958:29 8.11267 
4 *958:29 *958:33 3.39307 
5 *958:33 *958:35 9.9225 
6 *958:35 *4336:A2 14.325 
7 *958:35 *958:52 12.11 
8 *958:52 *958:58 2.295 
9 *958:58 *958:74 27.04 
10 *958:74 *4316:A2 4.825 
11 *958:74 *4273:B1 11.765 
12 *958:58 *4204:B1 1.96 
13 *958:52 *958:109 17.8925 
14 *958:109 *4215:A2_N 29.9025 
15 *958:109 *4286:A2 4.4325 
16 *958:33 *4237:B1 4.3425 
17 *958:29 *958:142 0.5 
18 *958:142 *4178:B1 17.8125 
19 *958:142 *4141:A2 4.3425 
*END

*D_NET *959 0.000236749
*CONN
*I *4395:B2 I *D sky130_fd_sc_hd__a22o_2
*I *5001:X O *D sky130_fd_sc_hd__dlygate4sd3_1
*CAP
1 *4395:B2 7.65145e-05
2 *5001:X 7.65145e-05
3 *4636:D *4395:B2 0
4 *5002:A *4395:B2 0
5 *836:71 *4395:B2 7.81876e-05
6 *836:73 *4395:B2 5.53249e-06
*RES
1 *5001:X *4395:B2 8.835 
*END

*D_NET *960 0.000644542
*CONN
*I *4628:D I *D sky130_fd_sc_hd__dfrtp_2
*I *5002:X O *D sky130_fd_sc_hd__dlygate4sd3_1
*CAP
1 *4628:D 0.000228263
2 *5002:X 0.000228263
3 *5002:A *4628:D 6.74079e-05
4 *629:60 *4628:D 0.000120607
*RES
1 *5002:X *4628:D 10.755 
*END

*D_NET *961 0.00324828
*CONN
*I *4398:A1 I *D sky130_fd_sc_hd__a22o_2
*I *5003:X O *D sky130_fd_sc_hd__dlygate4sd3_1
*CAP
1 *4398:A1 0.00123742
2 *5003:X 0.00123742
3 *4398:B1 *4398:A1 3.95724e-05
4 *4824:A *4398:A1 4.91189e-05
5 *4838:A *4398:A1 0.000275553
6 *4861:A *4398:A1 4.58166e-05
7 *259:56 *4398:A1 0
8 *259:58 *4398:A1 0
9 *263:51 *4398:A1 0
10 *263:61 *4398:A1 0.000166346
11 *615:51 *4398:A1 0.000197027
12 *762:12 *4398:A1 0
*RES
1 *5003:X *4398:A1 27.945 
*END

*D_NET *962 0.00109506
*CONN
*I *4397:B2 I *D sky130_fd_sc_hd__a22o_2
*I *5004:X O *D sky130_fd_sc_hd__dlygate4sd3_1
*CAP
1 *4397:B2 0.000333845
2 *5004:X 0.000333845
3 *4397:B2 *4397:A2 9.28455e-05
4 *4428:B *4397:B2 4.89395e-05
5 *4630:RESET_B *4397:B2 8.67113e-05
6 *4732:A *4397:B2 0.000117374
7 *5004:A *4397:B2 2.75229e-05
8 *5005:A *4397:B2 0
9 *550:8 *4397:B2 5.39718e-05
*RES
1 *5004:X *4397:B2 14.505 
*END

*D_NET *963 0.000341241
*CONN
*I *4630:D I *D sky130_fd_sc_hd__dfrtp_2
*I *5005:X O *D sky130_fd_sc_hd__dlygate4sd3_1
*CAP
1 *4630:D 0.000120628
2 *5005:X 0.000120628
3 *4422:A *4630:D 5.05437e-05
4 *4458:S *4630:D 4.94404e-05
5 *583:14 *4630:D 0
*RES
1 *5005:X *4630:D 9.12 
*END

*D_NET *964 0.000733092
*CONN
*I *4399:B2 I *D sky130_fd_sc_hd__a22o_2
*I *5006:X O *D sky130_fd_sc_hd__dlygate4sd3_1
*CAP
1 *4399:B2 0.00022926
2 *5006:X 0.00022926
3 *4399:B1 *4399:B2 5.31158e-06
4 *4435:A *4399:B2 7.03276e-05
5 *721:35 *4399:B2 0.000198934
*RES
1 *5006:X *4399:B2 10.665 
*END

*D_NET *965 0.00131981
*CONN
*I *4632:D I *D sky130_fd_sc_hd__dfrtp_2
*I *5007:X O *D sky130_fd_sc_hd__dlygate4sd3_1
*CAP
1 *4632:D 0.000421076
2 *5007:X 0.000421076
3 *4632:D *4397:A1 3.46092e-05
4 *4435:B *4632:D 2.25299e-05
5 *4437:A *4632:D 0.000333749
6 *4438:A0 *4632:D 0
7 *4632:CLK *4632:D 4.18603e-06
8 *4647:CLK *4632:D 4.71087e-05
9 *616:21 *4632:D 3.54721e-05
*RES
1 *5007:X *4632:D 14.745 
*END

*D_NET *966 0.00350988
*CONN
*I *4420:A2 I *D sky130_fd_sc_hd__a41o_2
*I *3980:A1 I *D sky130_fd_sc_hd__a21bo_2
*I *5008:X O *D sky130_fd_sc_hd__dlygate4sd3_1
*CAP
1 *4420:A2 0.000202708
2 *3980:A1 0.000578594
3 *5008:X 0
4 *966:4 0.000781303
5 *3980:A1 *3968:A 0.000136877
6 *3980:A1 *3968:B 5.46877e-05
7 *3969:C *3980:A1 0.000313852
8 *3976:A2 *3980:A1 7.36562e-05
9 *3976:B1_N *3980:A1 4.19968e-05
10 *3980:A2 *3980:A1 0
11 *4420:A1 *4420:A2 0.000360611
12 *4466:S *3980:A1 0.000114492
13 *4680:RESET_B *3980:A1 9.30717e-05
14 *4682:D *3980:A1 2.87867e-05
15 *4682:RESET_B *4420:A2 0.000231025
16 *251:58 *3980:A1 1.23391e-05
17 *532:41 *3980:A1 3.45588e-05
18 *579:27 *3980:A1 0.000234674
19 *694:101 *4420:A2 0.000216643
*RES
1 *5008:X *966:4 1.6 
2 *966:4 *3980:A1 20.76 
3 *966:4 *4420:A2 12.335 
*END

*D_NET *967 0.000674792
*CONN
*I *4196:A I *D sky130_fd_sc_hd__nand2_2
*I *5009:X O *D sky130_fd_sc_hd__dlygate4sd3_1
*CAP
1 *4196:A 0.00023128
2 *5009:X 0.00023128
3 *4400:B1 *4196:A 5.42646e-05
4 *4466:S *4196:A 0
5 *613:93 *4196:A 0.000157968
*RES
1 *5009:X *4196:A 11.715 
*END

*D_NET *968 0.00191657
*CONN
*I *4393:A1 I *D sky130_fd_sc_hd__a22o_2
*I *5010:X O *D sky130_fd_sc_hd__dlygate4sd3_1
*CAP
1 *4393:A1 0.000685965
2 *5010:X 0.000685965
3 *4393:B1 *4393:A1 2.11084e-05
4 *4401:A *4393:A1 8.65905e-05
5 *4402:A0 *4393:A1 3.09088e-05
6 *4402:S *4393:A1 0.0001249
7 *4626:D *4393:A1 1.16578e-05
8 *4626:RESET_B *4393:A1 0
9 *4634:D *4393:A1 4.91189e-05
10 *4907:A *4393:A1 0
11 *259:29 *4393:A1 0.000158993
12 *628:42 *4393:A1 6.1357e-05
13 *628:50 *4393:A1 0
*RES
1 *5010:X *4393:A1 19.365 
*END

*D_NET *969 0.0220442
*CONN
*I *4158:B1 I *D sky130_fd_sc_hd__o32ai_4
*I *4167:B1 I *D sky130_fd_sc_hd__o32a_2
*I *4168:B1 I *D sky130_fd_sc_hd__o32ai_2
*I *4248:A2 I *D sky130_fd_sc_hd__o22ai_2
*I *4186:B1 I *D sky130_fd_sc_hd__o32a_2
*I *4187:B1 I *D sky130_fd_sc_hd__o32ai_2
*I *4149:B1 I *D sky130_fd_sc_hd__o32ai_2
*I *4369:A2 I *D sky130_fd_sc_hd__o221a_2
*I *4741:X O *D sky130_fd_sc_hd__clkdlybuf4s25_1
*CAP
1 *4158:B1 0.000104189
2 *4167:B1 1.65033e-05
3 *4168:B1 0.000159923
4 *4248:A2 0.000420221
5 *4186:B1 0
6 *4187:B1 0.000106696
7 *4149:B1 0
8 *4369:A2 0.000634865
9 *4741:X 0.000138391
10 *969:99 0.00171637
11 *969:70 0.00257755
12 *969:46 0.00102901
13 *969:44 0.00171435
14 *969:33 0.00149005
15 *969:21 0.00156494
16 *969:8 0.000918607
17 *4168:B1 *4167:B2 0.000370649
18 *4168:B1 *1026:36 0.000141988
19 *4168:B1 *1113:29 0.000146713
20 *4187:B1 *4185:A2 5.15762e-05
21 *4187:B1 *988:10 3.63701e-06
22 *4248:A2 *4124:S 0
23 *4248:A2 *1021:30 0.000269916
24 *4369:A2 *1049:27 0
25 *969:33 *4148:B2 1.91597e-05
26 *969:33 *983:20 9.29751e-06
27 *969:44 *4148:B2 0.000233004
28 *969:44 *4149:B2 0.000123225
29 *969:46 *988:10 0.000309726
30 *969:46 *1112:10 0
31 *969:70 *4987:A 0
32 *969:70 *988:10 4.7043e-05
33 *969:70 *1026:69 0
34 *969:99 *1019:52 7.06865e-05
35 *3998:A1 *4369:A2 0
36 *4007:A0 *4369:A2 0
37 *4026:A0 *4369:A2 0
38 *4148:B1 *969:33 3.79555e-05
39 *4149:A1 *969:33 0.000437563
40 *4149:A2 *969:33 5.9477e-05
41 *4149:A3 *969:44 4.00541e-06
42 *4158:A2 *4158:B1 8.65961e-05
43 *4158:A2 *4369:A2 9.61119e-05
44 *4158:A2 *969:21 0.000109306
45 *4168:A1 *4168:B1 0.000168475
46 *4168:A2 *4168:B1 5.63821e-05
47 *4168:A3 *4168:B1 4.66108e-05
48 *4186:A3 *4187:B1 5.32983e-05
49 *4187:A2 *969:46 0
50 *4243:A2 *4248:A2 0.000247567
51 *4243:B1 *969:33 1.95991e-05
52 *4243:B1 *969:70 0.000139288
53 *4327:B1 *969:46 0
54 *4366:B2 *4369:A2 0
55 *4369:B1 *4369:A2 0.000269952
56 *4371:A1 *969:46 0
57 *4374:A *4369:A2 0
58 *4374:B *969:46 6.79688e-05
59 *4375:B *969:46 0.000120186
60 *4378:A *969:46 0.000195925
61 *4491:D *4158:B1 0
62 *4491:D *969:21 0
63 *4491:RESET_B *969:33 0.000100009
64 *4521:D *4369:A2 5.13155e-05
65 *4603:CLK *4167:B1 4.66108e-05
66 *4740:A *969:33 6.10352e-05
67 *4938:A *4369:A2 1.70935e-05
68 *5017:A *4158:B1 9.50342e-06
69 *3:30 *969:33 0.000221979
70 *255:18 *969:33 0.000112905
71 *279:21 *4248:A2 8.20779e-05
72 *280:34 *969:33 1.83756e-05
73 *280:34 *969:44 1.9415e-05
74 *289:49 *969:46 0.000140617
75 *290:12 *969:33 0.000531968
76 *297:12 *969:44 8.87273e-05
77 *305:16 *969:70 0
78 *307:10 *4168:B1 7.30547e-05
79 *307:10 *969:99 3.7027e-05
80 *308:18 *4167:B1 2.49909e-05
81 *313:10 *969:99 0
82 *331:10 *4187:B1 5.31158e-06
83 *332:8 *969:46 0
84 *332:19 *969:46 0
85 *349:16 *969:46 0.000191153
86 *360:16 *969:33 0
87 *392:18 *4248:A2 5.16418e-05
88 *392:18 *969:99 6.50768e-05
89 *429:22 *969:46 0
90 *458:18 *969:46 1.00941e-05
91 *611:49 *969:46 0
92 *687:10 *4158:B1 9.2171e-05
93 *687:10 *969:21 0.000108855
94 *693:10 *4369:A2 1.15688e-05
95 *696:101 *4369:A2 0
96 *891:26 *4369:A2 0
97 *958:29 *969:33 0.00326705
*RES
1 *4741:X *969:8 5.085 
2 *969:8 *4369:A2 13.845 
3 *969:8 *969:21 3.5475 
4 *969:21 *969:33 9.18317 
5 *969:33 *4149:B1 1.6 
6 *969:33 *969:44 6.26 
7 *969:44 *969:46 18.975 
8 *969:46 *4187:B1 5.94 
9 *969:46 *4186:B1 3.6 
10 *969:44 *969:70 6.6499 
11 *969:70 *4248:A2 15.0375 
12 *969:70 *969:99 5.01137 
13 *969:99 *4168:B1 9.66 
14 *969:99 *4167:B1 4.05 
15 *969:21 *4158:B1 5.6475 
*END

*D_NET *970 0.0017391
*CONN
*I *4394:A1 I *D sky130_fd_sc_hd__a22o_2
*I *5011:X O *D sky130_fd_sc_hd__dlygate4sd3_1
*CAP
1 *4394:A1 0.000736183
2 *5011:X 0.000736183
3 *4394:A1 *980:77 3.33079e-05
4 *4394:A1 *980:88 0.000168195
5 *836:71 *4394:A1 6.52265e-05
*RES
1 *5011:X *4394:A1 14 
*END

*D_NET *971 0.00301069
*CONN
*I *4396:A1 I *D sky130_fd_sc_hd__a22o_2
*I *5012:X O *D sky130_fd_sc_hd__dlygate4sd3_1
*CAP
1 *4396:A1 0.000694499
2 *5012:X 0.000694499
3 *4396:A1 *4396:A2 0.000327942
4 *4411:B *4396:A1 6.52265e-05
5 *4695:A *4396:A1 0.000223907
6 *5013:A *4396:A1 0.000538544
7 *613:100 *4396:A1 0.000372416
8 *837:10 *4396:A1 9.36526e-05
*RES
1 *5012:X *4396:A1 20.225 
*END

*D_NET *972 0.000267824
*CONN
*I *4629:D I *D sky130_fd_sc_hd__dfrtp_2
*I *5013:X O *D sky130_fd_sc_hd__dlygate4sd3_1
*CAP
1 *4629:D 8.75458e-05
2 *5013:X 8.75458e-05
3 *629:60 *4629:D 1.91597e-05
4 *629:70 *4629:D 7.35729e-05
*RES
1 *5013:X *4629:D 4.685 
*END

*D_NET *973 0.000390901
*CONN
*I *4075:A0 I *D sky130_fd_sc_hd__mux2_1
*I *5014:X O *D sky130_fd_sc_hd__dlygate4sd3_1
*CAP
1 *4075:A0 0.000195451
2 *5014:X 0.000195451
*RES
1 *5014:X *4075:A0 5.72 
*END

*D_NET *974 0.000369287
*CONN
*I *4264:A1 I *D sky130_fd_sc_hd__mux2_1
*I *5015:X O *D sky130_fd_sc_hd__dlygate4sd3_1
*CAP
1 *4264:A1 0.000159663
2 *5015:X 0.000159663
3 *4264:S *4264:A1 4.99619e-05
*RES
1 *5015:X *4264:A1 5.72 
*END

*D_NET *975 0.00045228
*CONN
*I *4306:A1 I *D sky130_fd_sc_hd__mux2_1
*I *5016:X O *D sky130_fd_sc_hd__dlygate4sd3_1
*CAP
1 *4306:A1 0.000141149
2 *5016:X 0.000141149
3 *4306:A0 *4306:A1 4.89395e-05
4 *4623:D *4306:A1 0.000121043
*RES
1 *5016:X *4306:A1 5.72 
*END

*D_NET *976 0.000358809
*CONN
*I *4057:A1 I *D sky130_fd_sc_hd__mux2_1
*I *5017:X O *D sky130_fd_sc_hd__dlygate4sd3_1
*CAP
1 *4057:A1 6.07183e-05
2 *5017:X 6.07183e-05
3 *4057:A1 *987:59 0.000201503
4 *4057:S *4057:A1 3.00381e-05
5 *947:18 *4057:A1 5.83121e-06
*RES
1 *5017:X *4057:A1 5.03 
*END

*D_NET *977 0.00076038
*CONN
*I *4391:A1 I *D sky130_fd_sc_hd__mux2_1
*I *5018:X O *D sky130_fd_sc_hd__dlygate4sd3_1
*CAP
1 *4391:A1 0.000231444
2 *5018:X 0.000231444
3 *4633:CLK *4391:A1 0.000128041
4 *617:81 *4391:A1 0.000117116
5 *617:91 *4391:A1 5.23362e-05
*RES
1 *5018:X *4391:A1 11.175 
*END

*D_NET *978 0.000594275
*CONN
*I *4416:A I *D sky130_fd_sc_hd__and2_2
*I *5019:X O *D sky130_fd_sc_hd__dlygate4sd3_1
*CAP
1 *4416:A 0.000209256
2 *5019:X 0.000209256
3 *4227:A1 *4416:A 2.11084e-05
4 *4874:A *4416:A 8.49205e-05
5 *581:21 *4416:A 6.97352e-05
*RES
1 *5019:X *4416:A 6.77 
*END

*D_NET *979 0.000360204
*CONN
*I *4171:A1 I *D sky130_fd_sc_hd__mux2_1
*I *5020:X O *D sky130_fd_sc_hd__dlygate4sd3_1
*CAP
1 *4171:A1 0.00012202
2 *5020:X 0.00012202
3 *4171:A0 *4171:A1 0.000116165
*RES
1 *5020:X *4171:A1 9.03 
*END

*D_NET *980 0.0198364
*CONN
*I *4396:A2 I *D sky130_fd_sc_hd__a22o_2
*I *4398:A2 I *D sky130_fd_sc_hd__a22o_2
*I *4397:A2 I *D sky130_fd_sc_hd__a22o_2
*I *4399:A2 I *D sky130_fd_sc_hd__a22o_2
*I *4395:A2 I *D sky130_fd_sc_hd__a22o_2
*I *4394:A2 I *D sky130_fd_sc_hd__a22o_2
*I *4393:A2 I *D sky130_fd_sc_hd__a22o_2
*I *3973:A I *D sky130_fd_sc_hd__nand2_2
*I *4392:A I *D sky130_fd_sc_hd__nor2_2
*I *4480:A1 I *D sky130_fd_sc_hd__a21oi_2
*I *4742:X O *D sky130_fd_sc_hd__clkdlybuf4s25_1
*CAP
1 *4396:A2 5.48511e-05
2 *4398:A2 1.48037e-05
3 *4397:A2 0.000639448
4 *4399:A2 0.000219597
5 *4395:A2 5.84969e-06
6 *4394:A2 0
7 *4393:A2 0.000228461
8 *3973:A 0
9 *4392:A 0.000304358
10 *4480:A1 0
11 *4742:X 0.00229862
12 *980:109 0.00111728
13 *980:103 0.000375586
14 *980:101 0.000432056
15 *980:88 0.000686473
16 *980:77 0.000642586
17 *980:54 0.00271079
18 *980:12 0.00128272
19 *980:6 0.00103128
20 *4392:A *1004:60 0
21 *4392:A *1012:20 5.83121e-06
22 *4392:A *1019:26 6.83447e-05
23 *4392:A *1026:16 2.23485e-05
24 *4392:A *1026:22 0
25 *4392:A *1029:45 0.000161529
26 *980:12 *1029:45 7.25761e-06
27 *980:54 *5008:A 5.30673e-05
28 *980:54 *1053:20 3.45588e-05
29 *3973:B *980:12 2.75229e-05
30 *4393:B1 *4393:A2 0.000301799
31 *4394:A1 *980:77 3.33079e-05
32 *4394:A1 *980:88 0.000168195
33 *4396:A1 *4396:A2 0.000327942
34 *4397:B1 *4397:A2 4.89395e-05
35 *4397:B2 *4397:A2 9.28455e-05
36 *4398:B2 *4397:A2 0.000131578
37 *4399:B1 *4399:A2 0.000265206
38 *4399:B1 *980:109 0.000354539
39 *4400:A2 *980:54 9.27495e-05
40 *4406:B *980:77 4.82919e-05
41 *4406:D_N *4393:A2 0
42 *4409:B1 *4393:A2 0.00032734
43 *4410:B *980:88 0
44 *4411:B *980:101 0
45 *4415:A0 *980:88 7.23602e-05
46 *4428:B *4397:A2 0.00012398
47 *4431:A *4399:A2 5.00317e-05
48 *4431:A *980:109 1.21329e-05
49 *4431:B *980:109 0.000197705
50 *4435:B *4399:A2 1.34584e-05
51 *4478:A *4392:A 1.85674e-05
52 *4478:A *980:12 7.01481e-05
53 *4478:C *980:12 1.33293e-05
54 *4478:D *980:12 0.000164352
55 *4618:RESET_B *980:54 5.30478e-05
56 *4626:D *4393:A2 4.30176e-06
57 *4627:D *980:77 0
58 *4631:D *980:103 4.38051e-05
59 *4631:D *980:109 0.000542902
60 *4675:D *4392:A 9.20028e-05
61 *4680:RESET_B *980:54 5.80887e-05
62 *4706:A *4392:A 0
63 *4729:A *980:12 0.000347029
64 *4732:A *980:103 0
65 *4732:A *980:109 0
66 *4742:A *980:54 0.000411289
67 *5002:A *4395:A2 1.37395e-05
68 *5005:A *4397:A2 3.62211e-05
69 *5007:A *4399:A2 8.79638e-05
70 *261:10 *980:54 3.67779e-05
71 *263:39 *980:54 0.000368678
72 *263:39 *980:77 0.000232999
73 *536:10 *980:77 0
74 *536:10 *980:88 0
75 *537:12 *4393:A2 9.30787e-05
76 *537:12 *980:88 0
77 *571:40 *4393:A2 0
78 *573:21 *980:88 0
79 *573:21 *980:101 0
80 *576:10 *980:109 0
81 *576:23 *4397:A2 0.000109613
82 *579:27 *980:54 0.000149591
83 *613:100 *4396:A2 0.000327942
84 *615:51 *4398:A2 2.64128e-05
85 *616:58 *4399:A2 1.2818e-05
86 *836:39 *980:54 7.06865e-05
87 *836:71 *980:77 3.1638e-05
88 *836:71 *980:88 0.000572462
89 *836:73 *980:101 0.000515106
90 *836:73 *980:103 0.000126679
91 *836:75 *980:103 7.30547e-05
92 *836:75 *980:109 4.44927e-05
*RES
1 *4742:X *980:6 2.395 
2 *980:6 *980:12 12.72 
3 *980:12 *4480:A1 1.6 
4 *980:12 *4392:A 11.375 
5 *980:6 *3973:A 1.6 
6 *4742:X *980:54 34.295 
7 *980:54 *4393:A2 12.2037 
8 *980:54 *980:77 8.365 
9 *980:77 *4394:A2 1.6 
10 *980:77 *980:88 11.9 
11 *980:88 *4395:A2 3.72375 
12 *980:88 *980:101 6.42 
13 *980:101 *980:103 2.4 
14 *980:103 *980:109 9.075 
15 *980:109 *4399:A2 9.43875 
16 *980:109 *4397:A2 13.5337 
17 *980:103 *4398:A2 3.855 
18 *980:101 *4396:A2 6.615 
*END

*D_NET *981 0.000651752
*CONN
*I *4151:A1 I *D sky130_fd_sc_hd__mux2_1
*I *5021:X O *D sky130_fd_sc_hd__dlygate4sd3_1
*CAP
1 *4151:A1 0.000104639
2 *5021:X 0.000104639
3 *4151:A0 *4151:A1 4.82863e-05
4 *4151:S *4151:A1 0.000351268
5 *4618:D *4151:A1 4.29198e-05
*RES
1 *5021:X *4151:A1 6.41 
*END

*D_NET *982 0.0444459
*CONN
*I *4161:B1 I *D sky130_fd_sc_hd__a22o_2
*I *4184:B1 I *D sky130_fd_sc_hd__a22o_2
*I *4157:A2 I *D sky130_fd_sc_hd__a2111o_2
*I *4173:B1 I *D sky130_fd_sc_hd__a22o_2
*I *4202:B1 I *D sky130_fd_sc_hd__a22o_2
*I *4268:B1 I *D sky130_fd_sc_hd__a22o_2
*I *4231:B1 I *D sky130_fd_sc_hd__a22o_2
*I *4281:B1 I *D sky130_fd_sc_hd__a221o_2
*I *4214:A2 I *D sky130_fd_sc_hd__a2111oi_2
*I *4142:B I *D sky130_fd_sc_hd__and2_2
*I *4743:X O *D sky130_fd_sc_hd__clkdlybuf4s25_1
*CAP
1 *4161:B1 0
2 *4184:B1 0.000877994
3 *4157:A2 0
4 *4173:B1 0.000821809
5 *4202:B1 0
6 *4268:B1 0.000767898
7 *4231:B1 0
8 *4281:B1 1.30603e-05
9 *4214:A2 0.00136569
10 *4142:B 0.000174493
11 *4743:X 5.32546e-05
12 *982:174 0.00157144
13 *982:162 0.0019567
14 *982:151 0.00112919
15 *982:111 0.00225926
16 *982:85 0.00444031
17 *982:77 0.00447374
18 *982:38 0.00208502
19 *982:34 0.00216162
20 *982:10 0.00113814
21 *4142:B *4142:A 2.99518e-06
22 *4142:B *4146:A1 0
23 *4184:B1 *3964:A 8.05768e-05
24 *4184:B1 *998:63 0.000661855
25 *4184:B1 *1005:59 0
26 *4214:A2 *3996:A1 0.000396579
27 *4214:A2 *4043:A0 7.23602e-05
28 *4214:A2 *4487:A1 7.70758e-05
29 *4214:A2 *994:29 0
30 *4214:A2 *1007:39 4.43871e-06
31 *4214:A2 *1022:36 0.000102049
32 *4214:A2 *1028:77 7.67436e-05
33 *4268:B1 *4202:A2 1.2818e-05
34 *4268:B1 *4268:A1 0.000153956
35 *4268:B1 *4268:B2 5.19006e-06
36 *4268:B1 *4273:B2 8.05834e-06
37 *4281:B1 *3996:A1 1.68183e-05
38 *982:10 *4161:A1 0.000112825
39 *982:10 *4161:B2 1.34361e-05
40 *982:10 *1019:54 0
41 *982:34 *4112:A1 0.000160801
42 *982:34 *4120:S 0.000284637
43 *982:34 *4124:A1 0.000286122
44 *982:34 *4124:S 0.00016031
45 *982:34 *4959:A 4.82863e-05
46 *982:34 *983:20 0.000825268
47 *982:34 *999:16 0.000121948
48 *982:34 *1019:52 8.58815e-05
49 *982:38 *4112:A1 6.34007e-05
50 *982:38 *1096:23 0.000120655
51 *982:77 *4143:A2 2.30292e-05
52 *982:77 *4143:C1 0.000168488
53 *982:77 *4144:D 0.000108329
54 *982:77 *4147:A1 0
55 *982:77 *987:49 0.000229668
56 *982:77 *1000:24 0.000232258
57 *982:77 *1000:26 0.000204463
58 *982:77 *1000:28 0.00013687
59 *982:77 *1021:64 2.8185e-05
60 *982:77 *1029:67 4.54719e-05
61 *982:85 *4766:A 0.000536666
62 *982:85 *1010:24 0
63 *982:85 *1018:43 0.00010189
64 *982:85 *1029:113 1.88602e-05
65 *982:111 *3996:A1 1.12578e-05
66 *982:111 *1010:58 0.000235573
67 *982:111 *1010:84 0.000178258
68 *982:111 *1017:22 1.49438e-05
69 *982:151 *4534:RESET_B 0
70 *982:151 *4542:RESET_B 0
71 *982:151 *4550:RESET_B 0.000118527
72 *982:151 *987:90 4.99619e-05
73 *982:151 *1017:22 3.50033e-05
74 *982:151 *1017:24 0.000194523
75 *982:151 *1017:32 0.000304832
76 *982:151 *1017:36 8.93951e-05
77 *982:162 *4496:RESET_B 0.000172402
78 *982:162 *4552:RESET_B 0.000107335
79 *982:162 *987:84 0.000194694
80 *982:162 *987:90 3.66286e-05
81 *982:162 *1042:61 0.000466264
82 *982:174 *4496:RESET_B 0.000169195
83 *982:174 *4552:RESET_B 0.000167535
84 *982:174 *985:99 5.1985e-06
85 *982:174 *1037:8 0.000140891
86 *4034:A1 *4214:A2 1.91597e-05
87 *4042:A1 *982:151 7.23533e-05
88 *4043:S *4214:A2 0.000124895
89 *4044:A1 *4268:B1 2.27064e-05
90 *4044:S *4268:B1 0.000138059
91 *4044:S *982:174 0.000121244
92 *4052:S *982:151 0.000190808
93 *4104:A1 *4142:B 2.0851e-06
94 *4112:A0 *982:34 0.000252175
95 *4120:A0 *982:34 0.000198945
96 *4124:A0 *982:34 0.000271592
97 *4140:A2 *982:85 0.000131861
98 *4148:A1 *4184:B1 1.7635e-05
99 *4157:A1 *982:77 4.66108e-05
100 *4157:C1 *982:77 8.84186e-05
101 *4158:A3 *982:77 1.56428e-05
102 *4161:A2 *982:10 2.97004e-06
103 *4161:A2 *982:34 2.66418e-05
104 *4173:A1 *4173:B1 4.12775e-05
105 *4173:B2 *4173:B1 0.000122202
106 *4202:A1 *982:174 9.12494e-06
107 *4202:B2 *982:174 4.55864e-06
108 *4204:A2 *4268:B1 0.000157937
109 *4215:B2 *4214:A2 8.65961e-05
110 *4231:A1 *982:151 0.000411008
111 *4231:A2 *982:162 1.2818e-05
112 *4236:A *982:111 1.22676e-05
113 *4236:B *982:111 7.10578e-05
114 *4236:C *982:111 0.000119631
115 *4236:D_N *982:111 3.09164e-05
116 *4237:A3 *982:85 0.000432647
117 *4237:A3 *982:111 0.000238324
118 *4268:A2 *4268:B1 0.000562005
119 *4273:A2 *4268:B1 0.000160338
120 *4280:C *982:111 7.32599e-05
121 *4281:A1 *982:111 8.8266e-05
122 *4281:B2 *4214:A2 2.5807e-05
123 *4281:C1 *982:111 0
124 *4286:B2 *982:111 0.000197264
125 *4336:A1 *4173:B1 0.000121036
126 *4336:A2 *982:162 0.000113411
127 *4364:A1 *4184:B1 0
128 *4506:CLK *982:85 0.000104325
129 *4535:CLK *4214:A2 7.2986e-05
130 *4535:D *4214:A2 0
131 *4542:CLK *982:111 9.27181e-05
132 *4562:CLK *982:77 0.000188727
133 *4562:D *982:77 6.07498e-06
134 *4602:D *4142:B 0
135 *4603:CLK *982:10 0.000114113
136 *4610:CLK *4184:B1 3.00915e-05
137 *4610:D *4184:B1 5.80683e-05
138 *4937:A *4214:A2 4.60584e-05
139 *4949:A *982:38 0.000538549
140 *4949:A *982:77 3.12176e-05
141 *5089:A *4268:B1 0.000101386
142 *5089:A *982:174 0.00122961
143 *266:34 *982:111 0
144 *267:46 *982:162 4.16262e-05
145 *267:54 *982:151 1.83847e-05
146 *267:54 *982:162 4.49917e-05
147 *268:32 *982:85 0.000101386
148 *268:51 *982:85 0
149 *268:51 *982:111 0
150 *272:68 *982:151 0.0002014
151 *275:42 *982:162 0.000333496
152 *275:61 *982:162 0.00031179
153 *280:34 *4184:B1 7.20828e-05
154 *280:95 *982:151 8.09021e-06
155 *289:37 *4184:B1 0.00052255
156 *295:16 *4184:B1 0.000299236
157 *296:12 *4184:B1 0.000229752
158 *308:18 *982:34 0.000162311
159 *478:16 *4173:B1 0.000184366
160 *626:25 *4184:B1 6.954e-05
161 *626:27 *4184:B1 3.11596e-05
162 *667:14 *4214:A2 1.06754e-05
163 *667:14 *4281:B1 9.57985e-06
164 *675:8 *4214:A2 0.000201502
165 *701:14 *4142:B 0
166 *701:14 *982:77 8.58284e-05
167 *702:28 *4184:B1 0
168 *702:54 *4142:B 3.00381e-05
169 *724:12 *982:77 0.000255338
*RES
1 *4743:X *982:10 7.235 
2 *982:10 *982:34 26.475 
3 *982:34 *982:38 5.64 
4 *982:38 *4142:B 8.195 
5 *982:38 *982:77 35.285 
6 *982:77 *982:85 9.00503 
7 *982:85 *982:111 21.8311 
8 *982:111 *4214:A2 30.3425 
9 *982:111 *4281:B1 2.2225 
10 *982:85 *982:151 22.6075 
11 *982:151 *4231:B1 1.6 
12 *982:151 *982:162 14.225 
13 *982:162 *982:174 8.93753 
14 *982:174 *4268:B1 17.29 
15 *982:174 *4202:B1 1.6 
16 *982:162 *4173:B1 16.485 
17 *982:77 *4157:A2 1.6 
18 *982:34 *4184:B1 26.75 
19 *982:10 *4161:B1 1.6 
*END

*D_NET *983 0.0134
*CONN
*I *4361:B1 I *D sky130_fd_sc_hd__a221o_2
*I *4367:B1 I *D sky130_fd_sc_hd__a22o_2
*I *5061:X O *D sky130_fd_sc_hd__clkbuf_2
*CAP
1 *4361:B1 0
2 *4367:B1 0.00152218
3 *5061:X 0.00199585
4 *983:30 0.00210479
5 *983:20 0.00257846
6 *4367:B1 *4365:B1 8.92485e-05
7 *4367:B1 *5054:A 5.96097e-05
8 *4367:B1 *988:31 3.35295e-05
9 *4367:B1 *1046:43 9.18556e-05
10 *4367:B1 *1049:23 0.000451581
11 *983:20 *4120:S 2.75229e-05
12 *983:20 *4124:S 0.000161467
13 *983:20 *4182:B 0.000134427
14 *983:20 *4964:A 0.000115254
15 *983:20 *1005:46 0
16 *983:20 *1021:139 0.00052461
17 *983:20 *1104:10 3.86529e-05
18 *983:30 *4074:S 1.54665e-05
19 *983:30 *4090:S 9.54225e-05
20 *983:30 *4361:B2 4.95837e-05
21 *983:30 *4749:A 8.35118e-05
22 *983:30 *5047:A 0.000220007
23 *983:30 *988:31 0.000159795
24 *983:30 *1005:74 0.000142971
25 *4120:A0 *983:20 4.43682e-05
26 *4148:B1 *983:20 4.16006e-05
27 *4149:A2 *983:20 3.99395e-05
28 *4373:B *983:20 0
29 *4697:A *983:20 0.000227799
30 *4740:A *983:20 0
31 *4960:A *983:20 0.000154782
32 *332:8 *983:20 0
33 *429:40 *983:20 0
34 *847:22 *4367:B1 0.000240211
35 *847:22 *983:30 0.00112095
36 *969:33 *983:20 9.29751e-06
37 *982:34 *983:20 0.000825268
*RES
1 *5061:X *983:20 44.195 
2 *983:20 *983:30 15.87 
3 *983:30 *4367:B1 25.13 
4 *983:30 *4361:B1 1.6 
*END

*D_NET *984 0.0104475
*CONN
*I *4483:A1 I *D sky130_fd_sc_hd__mux2_1
*I *4001:A1 I *D sky130_fd_sc_hd__mux2_1
*I *4010:A1 I *D sky130_fd_sc_hd__mux2_1
*I *3992:A1 I *D sky130_fd_sc_hd__mux2_1
*I *4057:A0 I *D sky130_fd_sc_hd__mux2_1
*I *4048:A0 I *D sky130_fd_sc_hd__mux2_1
*I *4039:A0 I *D sky130_fd_sc_hd__mux2_1
*I *4030:A0 I *D sky130_fd_sc_hd__mux2_1
*I *4020:A1 I *D sky130_fd_sc_hd__mux2_1
*I *5031:X O *D sky130_fd_sc_hd__clkdlybuf4s25_1
*CAP
1 *4483:A1 0
2 *4001:A1 5.45594e-05
3 *4010:A1 5.74818e-05
4 *3992:A1 0.00053641
5 *4057:A0 0
6 *4048:A0 8.79103e-05
7 *4039:A0 0.000162458
8 *4030:A0 1.65033e-05
9 *4020:A1 3.34802e-05
10 *5031:X 0.000165882
11 *984:50 0.000336619
12 *984:48 0.000143253
13 *984:46 0.0008175
14 *984:42 0.000452019
15 *984:31 0.000293147
16 *984:27 0.000637802
17 *984:16 0.00125927
18 *984:10 0.000914623
19 *3992:A1 *987:59 0.000837564
20 *4001:A1 *4155:B1 5.06382e-06
21 *4001:A1 *4155:C1 0.000134387
22 *4030:A0 *4155:A1 4.66108e-05
23 *4039:A0 *987:59 0.000234685
24 *984:10 *4842:A 6.86498e-05
25 *984:16 *4842:A 9.04502e-05
26 *984:27 *4154:A_N 0.000505378
27 *984:27 *4154:B_N 1.19928e-05
28 *984:27 *4155:A1 2.8185e-05
29 *984:31 *4155:A1 0.000260432
30 *984:42 *4507:SET_B 0.000378194
31 *984:42 *5055:A 4.33042e-05
32 *984:42 *1047:10 0.00013492
33 *984:46 *1047:10 2.97004e-06
34 *984:48 *987:59 7.57202e-05
35 *984:50 *987:59 0.000110673
36 *3991:S *4048:A0 0.000158965
37 *4001:S *4001:A1 0.000113821
38 *4001:S *984:27 4.82919e-05
39 *4001:S *984:31 7.96207e-05
40 *4010:A0 *984:42 3.05807e-05
41 *4010:A0 *984:46 4.18603e-06
42 *4020:S *4020:A1 4.99619e-05
43 *4020:S *984:27 0.000234674
44 *4030:S *4030:A0 2.49909e-05
45 *4030:S *984:31 2.75229e-05
46 *4048:A1 *4048:A0 0.000193017
47 *4064:A1 *984:10 0.000123225
48 *4482:A0 *984:10 4.77076e-05
49 *4554:D *984:16 2.45812e-05
50 *4562:CLK *984:16 0
51 *4685:D *984:16 3.48266e-05
52 *4704:A *4048:A0 7.21296e-06
53 *4704:A *984:46 0.000105168
54 *3:30 *984:16 0
55 *265:6 *984:10 6.6925e-05
56 *268:87 *4048:A0 4.75576e-05
57 *429:6 *4010:A1 8.65905e-05
58 *947:10 *984:46 0
59 *947:18 *984:46 0
*RES
1 *5031:X *984:10 7.485 
2 *984:10 *984:16 14.345 
3 *984:16 *4020:A1 2.395 
4 *984:16 *984:27 9 
5 *984:27 *984:31 3.135 
6 *984:31 *4030:A0 2.05 
7 *984:31 *984:42 7.46 
8 *984:42 *984:46 6.185 
9 *984:46 *984:48 0.795 
10 *984:48 *984:50 1.14 
11 *984:50 *4039:A0 3.775 
12 *984:50 *4048:A0 8.21 
13 *984:48 *4057:A0 1.6 
14 *984:46 *3992:A1 9.295 
15 *984:42 *4010:A1 4.395 
16 *984:27 *4001:A1 7.235 
17 *984:10 *4483:A1 3.6 
*END

*D_NET *985 0.0294672
*CONN
*I *4182:B I *D sky130_fd_sc_hd__and2_2
*I *4360:B1 I *D sky130_fd_sc_hd__a22o_2
*I *4367:A2 I *D sky130_fd_sc_hd__a22o_2
*I *4267:B I *D sky130_fd_sc_hd__and2_2
*I *4311:B1 I *D sky130_fd_sc_hd__a221o_2
*I *4202:A2 I *D sky130_fd_sc_hd__a22o_2
*I *5062:X O *D sky130_fd_sc_hd__buf_2
*CAP
1 *4182:B 0.00115517
2 *4360:B1 0.000110647
3 *4367:A2 7.89573e-05
4 *4267:B 0
5 *4311:B1 0.000518565
6 *4202:A2 3.75469e-06
7 *5062:X 0.0014868
8 *985:99 0.00173977
9 *985:68 0.00134573
10 *985:66 0.00259857
11 *985:34 0.00360587
12 *985:24 0.00167315
13 *985:16 0.00315536
14 *4182:B *4183:A1 0.000284931
15 *4182:B *988:31 0.000156762
16 *4182:B *1021:139 7.15823e-05
17 *4311:B1 *4777:A 2.69217e-05
18 *4311:B1 *1110:18 0.000166346
19 *4360:B1 *4360:A1 5.83373e-05
20 *4360:B1 *997:55 0
21 *4367:A2 *1046:43 6.57372e-05
22 *985:16 *4096:A1 0.000109334
23 *985:16 *4365:B1 0
24 *985:16 *4983:A 0.000207841
25 *985:16 *4991:A 0
26 *985:16 *1013:44 0
27 *985:16 *1095:10 0.000124439
28 *985:24 *4360:A1 4.82863e-05
29 *985:24 *4982:A 9.92098e-06
30 *985:24 *988:31 1.7635e-05
31 *985:24 *997:14 7.74694e-05
32 *985:24 *997:20 7.68414e-06
33 *985:24 *1071:23 2.55546e-05
34 *985:24 *1095:10 2.0794e-05
35 *985:34 *4087:A1 0.000120655
36 *985:34 *4556:RESET_B 0.000281878
37 *985:34 *4995:A 0.000124895
38 *985:34 *1046:20 4.4133e-05
39 *985:34 *1046:31 3.39064e-05
40 *985:34 *1046:43 2.03578e-05
41 *985:34 *1071:23 0.000163204
42 *985:66 *4025:A1 0.000620285
43 *985:66 *4333:A1 0.000279787
44 *985:66 *4334:B_N 0.000164874
45 *985:66 *4500:RESET_B 6.98363e-05
46 *985:66 *4529:RESET_B 4.51129e-05
47 *985:66 *4532:SET_B 1.74678e-05
48 *985:66 *4784:A 2.20732e-05
49 *985:66 *1024:87 1.10085e-05
50 *985:66 *1039:102 0.000183177
51 *985:66 *1043:20 0.000165166
52 *985:99 *4536:RESET_B 0.000117108
53 *985:99 *4544:RESET_B 5.20249e-05
54 *985:99 *4777:A 0.000457196
55 *985:99 *1037:22 9.23804e-06
56 *985:99 *1037:59 0.000152785
57 *4044:A1 *985:99 3.72081e-05
58 *4044:S *4202:A2 1.2818e-05
59 *4082:A1 *985:24 0
60 *4087:A0 *985:34 0.000241483
61 *4111:A0 *985:16 4.92105e-05
62 *4119:A0 *985:16 9.23551e-05
63 *4152:A *985:16 0
64 *4202:A1 *985:68 0.000195871
65 *4202:A1 *985:99 8.33066e-06
66 *4268:B1 *4202:A2 1.2818e-05
67 *4273:A1 *985:99 4.77769e-05
68 *4311:C1 *4311:B1 0.00028842
69 *4316:B1 *4311:B1 0.00029822
70 *4331:A1 *985:99 2.69153e-05
71 *4332:C *985:66 0.000262696
72 *4334:D *985:66 0.000243634
73 *4361:C1 *985:24 0.000277233
74 *4367:A1 *4367:A2 1.2818e-05
75 *4500:CLK *985:66 0.000639124
76 *4504:CLK *985:68 1.71013e-05
77 *4504:D *985:68 0
78 *4520:D *985:66 8.40269e-05
79 *4529:CLK *985:66 4.80285e-05
80 *4536:CLK *985:99 0.000216891
81 *4536:D *985:99 8.33066e-06
82 *4556:D *985:34 4.40889e-05
83 *4586:D *985:16 0.000326828
84 *4601:CLK *985:16 9.65016e-05
85 *4601:D *985:16 0.000289766
86 *4609:D *985:16 0
87 *4609:RESET_B *4182:B 0.000261228
88 *4685:RESET_B *985:16 9.38868e-05
89 *4785:A *985:66 0.000543305
90 *4819:A *985:16 3.45588e-05
91 *4927:A *985:99 0.000197858
92 *4951:A *985:16 4.92368e-05
93 *3:30 *985:16 1.01463e-05
94 *285:38 *985:16 3.86607e-05
95 *289:18 *985:16 8.58339e-06
96 *618:108 *985:16 6.43474e-05
97 *618:108 *985:24 7.85645e-05
98 *618:110 *985:24 3.23391e-05
99 *618:154 *985:16 0.000171979
100 *618:165 *985:16 0.000101325
101 *653:10 *4367:A2 6.94138e-05
102 *653:10 *985:34 5.21627e-05
103 *669:12 *985:66 4.92062e-05
104 *672:12 *985:66 4.99619e-05
105 *722:77 *4360:B1 4.82919e-05
106 *722:77 *985:24 0.000286268
107 *847:22 *4182:B 0.000907192
108 *928:10 *985:99 0.000192509
109 *982:174 *985:99 5.1985e-06
110 *983:20 *4182:B 0.000134427
*RES
1 *5062:X *985:16 35.29 
2 *985:16 *985:24 11.45 
3 *985:24 *985:34 19.385 
4 *985:34 *985:66 49.675 
5 *985:66 *985:68 2.4 
6 *985:68 *4202:A2 3.72375 
7 *985:68 *985:99 29.31 
8 *985:99 *4311:B1 18.14 
9 *985:99 *4267:B 1.6 
10 *985:34 *4367:A2 5.86875 
11 *985:24 *4360:B1 7.43 
12 *985:16 *4182:B 30.41 
*END

*D_NET *986 0.0243312
*CONN
*I *4366:B1 I *D sky130_fd_sc_hd__a221o_2
*I *4184:A2 I *D sky130_fd_sc_hd__a22o_2
*I *4360:A2 I *D sky130_fd_sc_hd__a22o_2
*I *4177:A2 I *D sky130_fd_sc_hd__a2111o_2
*I *4230:B I *D sky130_fd_sc_hd__and2_2
*I *4331:B1 I *D sky130_fd_sc_hd__a221o_2
*I *5063:X O *D sky130_fd_sc_hd__buf_2
*CAP
1 *4366:B1 0
2 *4184:A2 0.000658239
3 *4360:A2 0.000269786
4 *4177:A2 0.000542773
5 *4230:B 0
6 *4331:B1 0.000642699
7 *5063:X 0.000212629
8 *986:65 0.00240506
9 *986:59 0.00224233
10 *986:42 0.00196169
11 *986:31 0.00189809
12 *986:10 0.0020998
13 *4177:A2 *4492:RESET_B 0
14 *4184:A2 *4184:A1 1.44262e-05
15 *4331:B1 *4053:A0 0
16 *4331:B1 *4281:A2 1.49369e-05
17 *4331:B1 *4330:A_N 0
18 *4331:B1 *4549:SET_B 0
19 *4331:B1 *987:118 4.20983e-05
20 *4331:B1 *1037:22 0
21 *4360:A2 *4361:A1 0.000130558
22 *4360:A2 *4365:B1 2.29107e-05
23 *4360:A2 *997:55 0
24 *986:10 *4281:A2 5.10156e-05
25 *986:10 *4501:RESET_B 6.96579e-05
26 *986:31 *1024:24 4.61701e-06
27 *986:42 *4172:B 0
28 *986:42 *987:61 0
29 *986:59 *1049:27 3.07172e-05
30 *986:65 *4095:S 0.000600496
31 *986:65 *4505:RESET_B 0.000163289
32 *986:65 *1049:27 0.000777362
33 *3993:S *4177:A2 1.94723e-05
34 *3994:A0 *4331:B1 0.000312778
35 *3997:S *4177:A2 0.000161635
36 *4002:A0 *4177:A2 2.41307e-05
37 *4002:S *4177:A2 0.000926009
38 *4002:S *986:42 7.25146e-05
39 *4007:A0 *986:59 4.13769e-05
40 *4007:A0 *986:65 0.000158881
41 *4059:A1 *4331:B1 0.000107634
42 *4111:A1 *4360:A2 0.000236291
43 *4133:B1 *986:42 0
44 *4172:A *4177:A2 0
45 *4203:A1 *4331:B1 0
46 *4203:A1 *986:10 0
47 *4204:B2 *4331:B1 0.000226841
48 *4237:A1 *986:42 8.65961e-05
49 *4268:A2 *4331:B1 4.77807e-05
50 *4331:C1 *4331:B1 4.75977e-05
51 *4362:C1 *4360:A2 7.03219e-05
52 *4366:B2 *986:65 3.57846e-05
53 *4368:A1 *986:65 0.000151814
54 *4549:D *4331:B1 0
55 *4710:A *986:31 2.99518e-06
56 *4806:A *4177:A2 0
57 *4877:A *986:10 0
58 *4979:A *4184:A2 0.000274061
59 *267:62 *4331:B1 0
60 *272:149 *4177:A2 0
61 *276:23 *986:42 0.000330593
62 *276:42 *986:59 0.00165669
63 *280:69 *4184:A2 0.000589534
64 *280:69 *986:65 0.000170631
65 *280:77 *986:65 4.40693e-06
66 *280:81 *986:59 0.000154657
67 *280:87 *986:31 0.000546495
68 *330:10 *4184:A2 3.35859e-05
69 *349:16 *986:31 0
70 *349:16 *986:59 3.98779e-05
71 *360:16 *986:31 0.0023555
72 *611:23 *986:59 0.000420622
73 *612:10 *986:42 4.82919e-05
74 *612:12 *4177:A2 0
75 *640:10 *4177:A2 0
76 *677:6 *986:65 0.000112414
77 *693:10 *986:65 0
78 *722:77 *4360:A2 8.26048e-06
*RES
1 *5063:X *986:10 6.6825 
2 *986:10 *4331:B1 16.2675 
3 *986:10 *986:31 6.7665 
4 *986:31 *4230:B 1.6 
5 *986:31 *986:42 13.5875 
6 *986:42 *4177:A2 16.8375 
7 *986:42 *986:59 4.08923 
8 *986:59 *986:65 26.57 
9 *986:65 *4360:A2 11.4388 
10 *986:65 *4184:A2 13.63 
11 *986:59 *4366:B1 3.6 
*END

*D_NET *987 0.0417528
*CONN
*I *4160:B I *D sky130_fd_sc_hd__and2_2
*I *4152:B I *D sky130_fd_sc_hd__and2_2
*I *4133:A2 I *D sky130_fd_sc_hd__a221o_2
*I *4335:A2 I *D sky130_fd_sc_hd__a2111o_2
*I *4198:B I *D sky130_fd_sc_hd__and2_2
*I *4281:A2 I *D sky130_fd_sc_hd__a221o_2
*I *4210:A2 I *D sky130_fd_sc_hd__a221oi_2
*I *4315:A2 I *D sky130_fd_sc_hd__a2111o_2
*I *4172:B I *D sky130_fd_sc_hd__and2_2
*I *4147:A2 I *D sky130_fd_sc_hd__a2111o_2
*I *4744:X O *D sky130_fd_sc_hd__clkdlybuf4s25_1
*CAP
1 *4160:B 0
2 *4152:B 2.08101e-05
3 *4133:A2 0.000318997
4 *4335:A2 0.000551796
5 *4198:B 0
6 *4281:A2 0.000840037
7 *4210:A2 0.000943856
8 *4315:A2 0.0005964
9 *4172:B 0.000110286
10 *4147:A2 9.06871e-06
11 *4744:X 0.000474518
12 *987:118 0.00296288
13 *987:94 0.0025503
14 *987:90 0.000771616
15 *987:84 0.00238001
16 *987:61 0.00185601
17 *987:59 0.00179032
18 *987:49 0.00225517
19 *987:24 0.00311581
20 *987:12 0.00241674
21 *4147:A2 *1013:40 1.59999e-05
22 *4147:A2 *1029:65 2.91343e-05
23 *4210:A2 *4069:A0 6.19897e-05
24 *4210:A2 *4134:B 0.000133893
25 *4210:A2 *4134:C_N 3.93101e-05
26 *4210:A2 *4210:A1 8.35106e-05
27 *4210:A2 *4270:D_N 0.000315139
28 *4210:A2 *4557:RESET_B 0.000265744
29 *4210:A2 *4559:RESET_B 0.000116158
30 *4210:A2 *1061:10 0.000131401
31 *4281:A2 *3996:A1 2.91343e-05
32 *4281:A2 *4495:RESET_B 4.32126e-05
33 *4281:A2 *4501:RESET_B 0.000274669
34 *4281:A2 *4549:SET_B 0
35 *4281:A2 *1040:68 0.000104218
36 *4315:A2 *4270:D_N 0.00058031
37 *4315:A2 *4313:B_N 0.000139933
38 *4315:A2 *4315:A1 4.60123e-05
39 *4335:A2 *4062:A0 0.000171001
40 *4335:A2 *1016:51 8.35118e-05
41 *4335:A2 *1039:49 0.000129028
42 *987:12 *1011:32 0.000117825
43 *987:12 *1019:89 0
44 *987:12 *1021:30 0.000232405
45 *987:24 *4160:A 5.77471e-05
46 *987:24 *1013:40 2.40242e-05
47 *987:24 *1029:55 0.000213477
48 *987:24 *1029:57 0.00019598
49 *987:24 *1029:65 0.000397794
50 *987:49 *4143:A1 0.000105711
51 *987:49 *4143:A2 0.000345701
52 *987:49 *4143:C1 4.28639e-05
53 *987:49 *1013:19 4.38051e-05
54 *987:49 *1029:67 1.22762e-05
55 *987:49 *1080:10 1.4399e-05
56 *987:94 *4549:SET_B 0.000119066
57 *987:118 *4201:D 4.82863e-05
58 *987:118 *4311:B2 0.000210137
59 *987:118 *4330:A_N 0.000177068
60 *987:118 *4745:A 0.000163175
61 *987:118 *4764:A 4.82863e-05
62 *987:118 *1015:6 0.000122331
63 *987:118 *1015:32 0.00016063
64 *987:118 *1023:37 0.000151541
65 *987:118 *1023:43 0.000689202
66 *3992:A1 *987:59 0.000837564
67 *3992:S *987:59 2.49909e-05
68 *3994:S *4281:A2 0
69 *4006:S *987:118 0
70 *4039:A0 *987:59 0.000234685
71 *4039:A1 *987:59 0.000270415
72 *4044:S *4335:A2 4.41506e-05
73 *4049:A1 *987:84 0.000120655
74 *4056:S *987:59 7.70828e-05
75 *4057:A1 *987:59 0.000201503
76 *4057:S *987:59 0.000156364
77 *4059:A1 *4281:A2 0.000116165
78 *4061:S *4281:A2 0.000284995
79 *4077:A1 *4210:A2 0
80 *4141:A1 *987:59 0
81 *4141:A1 *987:61 0
82 *4141:A2 *987:61 5.47418e-05
83 *4141:B1 *4133:A2 8.8954e-05
84 *4141:B2 *987:59 5.2124e-05
85 *4141:B2 *987:61 2.4997e-05
86 *4147:D1 *987:24 0.000238919
87 *4178:B1 *4172:B 0.000117866
88 *4178:B1 *987:61 0.000695369
89 *4201:C *987:118 0.000541118
90 *4203:D1 *987:118 0.000163204
91 *4204:A1 *987:90 9.66021e-05
92 *4204:B2 *4281:A2 0.000119214
93 *4210:B1 *4210:A2 9.08126e-05
94 *4215:B1 *4210:A2 7.94805e-05
95 *4231:B2 *987:90 0.000234777
96 *4281:A1 *4281:A2 2.91343e-05
97 *4281:C1 *4281:A2 0
98 *4311:A2 *987:118 3.90291e-05
99 *4315:D1 *4315:A2 0.000196052
100 *4316:B1 *987:118 4.36694e-06
101 *4316:B2 *4315:A2 0.000150869
102 *4331:B1 *4281:A2 1.49369e-05
103 *4331:B1 *987:118 4.20983e-05
104 *4335:B1 *4335:A2 2.85364e-05
105 *4495:D *4281:A2 7.45968e-05
106 *4549:D *987:118 0
107 *4559:CLK *4210:A2 0.000230096
108 *4578:CLK *987:49 2.63819e-05
109 *4578:RESET_B *987:49 7.94826e-05
110 *4600:D *4315:A2 1.18308e-05
111 *4700:A *987:84 5.30673e-05
112 *4710:A *987:84 7.66083e-05
113 *266:34 *4281:A2 0
114 *267:36 *987:84 0.000224692
115 *267:46 *987:84 0.000452151
116 *267:54 *987:90 0.000205684
117 *267:54 *987:94 6.25927e-05
118 *267:54 *987:118 0.000176662
119 *272:68 *4335:A2 0.000237004
120 *272:76 *4335:A2 9.81696e-05
121 *272:149 *4172:B 2.11084e-05
122 *275:18 *987:59 0.000304098
123 *275:30 *987:61 0
124 *275:61 *4281:A2 2.15738e-05
125 *280:95 *4335:A2 0.000851404
126 *289:18 *4133:A2 4.11678e-06
127 *289:18 *987:61 7.61149e-05
128 *295:16 *987:24 0.000393024
129 *478:16 *4335:A2 2.24574e-05
130 *612:57 *987:84 0.00056563
131 *613:22 *987:24 0.000342607
132 *621:10 *987:84 0.000198939
133 *667:14 *4281:A2 0
134 *947:18 *987:59 0.000270912
135 *982:77 *987:49 0.000229668
136 *982:151 *987:90 4.99619e-05
137 *982:162 *987:84 0.000194694
138 *982:162 *987:90 3.66286e-05
139 *984:48 *987:59 7.57202e-05
140 *984:50 *987:59 0.000110673
141 *986:10 *4281:A2 5.10156e-05
142 *986:42 *4172:B 0
143 *986:42 *987:61 0
*RES
1 *4744:X *987:12 12.26 
2 *987:12 *987:24 28.125 
3 *987:24 *4147:A2 1.8775 
4 *987:24 *987:49 20.89 
5 *987:49 *987:59 26.795 
6 *987:59 *987:61 9.54 
7 *987:61 *4172:B 5.43 
8 *987:61 *987:84 22.01 
9 *987:84 *987:90 8.415 
10 *987:90 *987:94 3.825 
11 *987:94 *987:118 36.075 
12 *987:118 *4315:A2 17.13 
13 *987:118 *4210:A2 30.14 
14 *987:94 *4281:A2 25.1075 
15 *987:90 *4198:B 1.6 
16 *987:84 *4335:A2 20.825 
17 *987:59 *4133:A2 7.76625 
18 *987:49 *4152:B 1.96 
19 *987:12 *4160:B 1.6 
*END

*D_NET *988 0.013058
*CONN
*I *4361:A2 I *D sky130_fd_sc_hd__a221o_2
*I *4365:B1 I *D sky130_fd_sc_hd__a221o_2
*I *4185:A2 I *D sky130_fd_sc_hd__a2111o_2
*I *5064:X O *D sky130_fd_sc_hd__clkbuf_2
*CAP
1 *4361:A2 0
2 *4365:B1 0.000717307
3 *4185:A2 0.000158897
4 *5064:X 0.00101311
5 *988:31 0.00256068
6 *988:10 0.00301538
7 *4185:A2 *4181:D 6.40069e-05
8 *4185:A2 *4186:B2 0.000146108
9 *4365:B1 *4111:S 0
10 *4365:B1 *4359:B 0.000397046
11 *4365:B1 *4362:A1 0.000120186
12 *4365:B1 *1013:44 5.92269e-05
13 *4365:B1 *1087:8 0.000452755
14 *988:10 *4181:D 0.000111054
15 *988:10 *4186:B2 3.93775e-05
16 *988:10 *1026:69 0.000164679
17 *4111:A0 *4365:B1 0
18 *4182:B *988:31 0.000156762
19 *4187:B1 *4185:A2 5.15762e-05
20 *4187:B1 *988:10 3.63701e-06
21 *4317:A *988:10 0.000116841
22 *4327:A2_N *988:10 0.00015997
23 *4360:A2 *4365:B1 2.29107e-05
24 *4362:B1 *4365:B1 8.56542e-05
25 *4362:C1 *4365:B1 0.000263572
26 *4365:B2 *4365:B1 2.49764e-05
27 *4367:B1 *4365:B1 8.92485e-05
28 *4367:B1 *988:31 3.35295e-05
29 *4371:S *988:10 0.000139245
30 *4378:A *988:10 0.000112105
31 *5064:A *988:10 0.000421923
32 *289:49 *988:10 0.000363667
33 *305:16 *988:10 0.000343695
34 *349:16 *988:10 0.000101245
35 *360:16 *988:10 7.33173e-05
36 *458:18 *988:10 1.88656e-05
37 *478:16 *988:31 0.000386571
38 *611:23 *4365:B1 0.000191495
39 *618:108 *988:31 1.84465e-05
40 *847:22 *4365:B1 8.73345e-05
41 *847:22 *988:31 0.000237358
42 *969:46 *988:10 0.000309726
43 *969:70 *988:10 4.7043e-05
44 *983:30 *988:31 0.000159795
45 *985:16 *4365:B1 0
46 *985:24 *988:31 1.7635e-05
*RES
1 *5064:X *988:10 29.6025 
2 *988:10 *4185:A2 7.4025 
3 *988:10 *988:31 7.92525 
4 *988:31 *4365:B1 23.7463 
5 *988:31 *4361:A2 1.6 
*END

*D_NET *989 0.00157014
*CONN
*I *5045:A I *D sky130_fd_sc_hd__clkbuf_4
*I *4110:S I *D sky130_fd_sc_hd__mux2_1
*I *4745:X O *D sky130_fd_sc_hd__clkdlybuf4s25_1
*CAP
1 *5045:A 0.000147987
2 *4110:S 5.11302e-05
3 *4745:X 0.000191683
4 *989:8 0.000390799
5 *4110:S *4745:A 0
6 *5045:A *990:14 1.56428e-05
7 *989:8 *4311:B2 0.000268999
8 *4272:A2 *4110:S 0.00013687
9 *4272:A2 *5045:A 0.00023973
10 *282:49 *5045:A 2.49909e-05
11 *894:10 *4110:S 9.37731e-05
12 *894:10 *5045:A 8.53113e-06
*RES
1 *4745:X *989:8 6.12 
2 *989:8 *4110:S 5.235 
3 *989:8 *5045:A 6.96 
*END

*D_NET *990 0.0103772
*CONN
*I *4102:S I *D sky130_fd_sc_hd__mux2_1
*I *4086:S I *D sky130_fd_sc_hd__mux2_1
*I *4094:S I *D sky130_fd_sc_hd__mux2_1
*I *4078:S I *D sky130_fd_sc_hd__mux2_1
*I *4101:S I *D sky130_fd_sc_hd__mux2_1
*I *4085:S I *D sky130_fd_sc_hd__mux2_1
*I *4093:S I *D sky130_fd_sc_hd__mux2_1
*I *4077:S I *D sky130_fd_sc_hd__mux2_1
*I *4070:S I *D sky130_fd_sc_hd__mux2_1
*I *5045:X O *D sky130_fd_sc_hd__clkbuf_4
*CAP
1 *4102:S 0
2 *4086:S 0
3 *4094:S 0
4 *4078:S 0
5 *4101:S 1.8199e-05
6 *4085:S 0.00011282
7 *4093:S 1.39327e-05
8 *4077:S 0
9 *4070:S 9.46803e-05
10 *5045:X 0.000476129
11 *990:85 0.000217348
12 *990:76 0.000479824
13 *990:55 0.000957607
14 *990:38 0.000907759
15 *990:30 0.000537298
16 *990:22 0.000443862
17 *990:16 0.000400537
18 *990:14 0.000735068
19 *4085:S *4085:A1 8.65037e-05
20 *990:14 *4311:B2 2.20014e-05
21 *990:14 *4945:A 0.000187708
22 *990:16 *4311:B2 0.000283263
23 *990:22 *4086:A0 4.80285e-05
24 *990:22 *4311:B2 2.75229e-05
25 *990:22 *1078:23 1.1561e-05
26 *990:30 *1031:43 7.77167e-06
27 *990:38 *4078:A0 2.21074e-05
28 *990:55 *4077:A0 8.52845e-05
29 *990:55 *1015:71 3.11548e-05
30 *990:76 *4077:A0 0.000266754
31 *990:76 *4085:A1 0.000134492
32 *990:76 *4271:A2 0.000363235
33 *4070:A0 *4070:S 0.000204729
34 *4070:A0 *990:38 2.98644e-05
35 *4078:A1 *990:30 1.84465e-05
36 *4078:A1 *990:38 0.000340032
37 *4086:A1 *990:22 0.000140905
38 *4086:A1 *990:30 0.00065309
39 *4093:A0 *990:85 3.3485e-05
40 *4093:A1 *4093:S 8.52845e-05
41 *4093:A1 *990:76 1.42807e-05
42 *4093:A1 *990:85 8.49205e-05
43 *4094:A0 *990:22 8.08439e-05
44 *4101:A0 *4101:S 4.77757e-05
45 *4101:A0 *990:85 4.77719e-05
46 *4102:A0 *990:14 0.00019072
47 *4102:A0 *990:16 0.000123955
48 *4575:CLK *990:76 0
49 *4583:D *990:76 0
50 *4584:CLK *990:30 0
51 *4591:D *990:76 0.000292059
52 *4592:D *990:22 0
53 *4851:A *990:38 8.23457e-05
54 *4923:A *990:55 0.000110709
55 *4999:A *4093:S 8.64421e-05
56 *4999:A *990:85 3.6355e-05
57 *5045:A *990:14 1.56428e-05
58 *614:66 *990:30 0.00015783
59 *614:92 *990:30 0.000478371
60 *955:12 *4085:S 4.89295e-05
*RES
1 *5045:X *990:14 12.365 
2 *990:14 *990:16 5.625 
3 *990:16 *990:22 5.54 
4 *990:22 *990:30 11.42 
5 *990:30 *990:38 7.265 
6 *990:38 *4070:S 6 
7 *990:38 *990:55 10.76 
8 *990:55 *4077:S 1.6 
9 *990:55 *990:76 13.825 
10 *990:76 *4093:S 2.395 
11 *990:76 *990:85 1.83 
12 *990:85 *4085:S 7.94 
13 *990:85 *4101:S 2.05 
14 *990:30 *4078:S 1.6 
15 *990:22 *4094:S 3.6 
16 *990:16 *4086:S 1.6 
17 *990:14 *4102:S 1.6 
*END

*D_NET *991 0.00995541
*CONN
*I *4126:S I *D sky130_fd_sc_hd__mux2_1
*I *4118:S I *D sky130_fd_sc_hd__mux2_1
*I *4745:A I *D sky130_fd_sc_hd__clkdlybuf4s25_1
*I *4117:S I *D sky130_fd_sc_hd__mux2_1
*I *4109:S I *D sky130_fd_sc_hd__mux2_1
*I *3987:S I *D sky130_fd_sc_hd__mux2_1
*I *4125:S I *D sky130_fd_sc_hd__mux2_1
*I *4746:X O *D sky130_fd_sc_hd__clkdlybuf4s25_1
*CAP
1 *4126:S 2.08101e-05
2 *4118:S 0
3 *4745:A 0.000298457
4 *4117:S 0.000172521
5 *4109:S 0.000670317
6 *3987:S 0.00030141
7 *4125:S 0.000145219
8 *4746:X 0
9 *991:66 0.000536582
10 *991:62 0.00082241
11 *991:18 0.000588777
12 *991:14 0.000830194
13 *991:12 0.000568182
14 *991:6 0.000941405
15 *3987:S *3987:A1 3.00381e-05
16 *3987:S *4977:A 0.000203178
17 *4109:S *4109:A0 4.66108e-05
18 *4109:S *1093:10 4.66742e-05
19 *4109:S *1101:27 0.000207849
20 *4117:S *1101:27 0.000362152
21 *4117:S *1117:8 4.41506e-05
22 *4745:A *4311:B2 0.000276441
23 *4745:A *4943:A 0.000181383
24 *991:12 *4615:RESET_B 0.000224136
25 *991:12 *994:69 8.81618e-05
26 *991:14 *994:69 1.94723e-05
27 *991:18 *4977:A 0
28 *991:18 *994:69 0.000121696
29 *991:62 *4316:A1 6.89e-05
30 *991:62 *4541:RESET_B 7.62032e-05
31 *991:62 *1032:54 0
32 *991:62 *1043:59 0
33 *991:66 *1110:18 8.40213e-05
34 *3987:A0 *3987:S 1.61831e-05
35 *4050:A1 *991:62 0
36 *4070:A1 *4109:S 4.0843e-05
37 *4110:S *4745:A 0
38 *4118:A1 *4745:A 0.000157968
39 *4125:A0 *3987:S 0.000163204
40 *4125:A0 *4125:S 0.000349592
41 *4126:A0 *991:62 7.35729e-05
42 *4126:A0 *991:66 2.16917e-05
43 *4273:A3 *991:12 6.91231e-05
44 *4273:B1 *991:12 0.000285535
45 *4273:B1 *991:62 9.17974e-05
46 *4488:D *3987:S 3.23663e-05
47 *4615:CLK *4109:S 2.75229e-05
48 *4693:A *991:12 0.000113419
49 *4699:A *991:12 1.73593e-05
50 *4699:A *991:14 2.03578e-05
51 *4699:A *991:18 0.000106393
52 *4845:A *991:62 0.000190065
53 *4962:A *991:66 2.61299e-05
54 *5089:A *991:12 1.17614e-05
55 *894:10 *4745:A 0
56 *987:118 *4745:A 0.000163175
*RES
1 *4746:X *991:6 3.6 
2 *991:6 *991:12 9.585 
3 *991:12 *991:14 0.615 
4 *991:14 *991:18 5.675 
5 *991:18 *4125:S 4.81 
6 *991:18 *3987:S 7.915 
7 *991:14 *4109:S 12.975 
8 *991:12 *4117:S 7.5 
9 *991:6 *991:62 12.8 
10 *991:62 *991:66 3.57 
11 *991:66 *4745:A 13.13 
12 *991:66 *4118:S 1.6 
13 *991:62 *4126:S 1.96 
*END

*D_NET *992 0.00442014
*CONN
*I *5046:A I *D sky130_fd_sc_hd__buf_2
*I *4487:S I *D sky130_fd_sc_hd__mux2_1
*I *4069:S I *D sky130_fd_sc_hd__mux2_1
*I *4747:X O *D sky130_fd_sc_hd__clkdlybuf4s25_1
*CAP
1 *5046:A 0.000239875
2 *4487:S 5.27628e-05
3 *4069:S 0.000118877
4 *4747:X 4.10219e-05
5 *992:12 0.000978671
6 *992:6 0.00108793
7 *4069:S *4069:A0 8.8266e-05
8 *5046:A *4747:A 4.82919e-05
9 *5046:A *993:10 0.000160635
10 *992:12 *4115:S 0
11 *992:12 *4123:A1 0
12 *992:12 *4613:RESET_B 7.67639e-05
13 *992:12 *4798:A 0
14 *992:12 *993:10 0
15 *992:12 *994:29 0
16 *4069:A1 *4069:S 0.000134314
17 *4123:A0 *992:12 0.000252282
18 *4214:B1 *992:12 0.000361735
19 *4215:B2 *992:12 0.000220629
20 *4487:A0 *4069:S 2.05056e-05
21 *4487:A0 *4487:S 0.000138808
22 *4605:D *992:12 9.54399e-05
23 *4799:A *4069:S 7.60965e-05
24 *4799:A *4487:S 0.000131791
25 *733:10 *992:12 9.54469e-05
*RES
1 *4747:X *992:6 2.05 
2 *992:6 *992:12 21.955 
3 *992:12 *4069:S 4.81 
4 *992:12 *4487:S 3.775 
5 *992:6 *5046:A 5.875 
*END

*D_NET *993 0.00850683
*CONN
*I *4107:S I *D sky130_fd_sc_hd__mux2_1
*I *4099:S I *D sky130_fd_sc_hd__mux2_1
*I *4091:S I *D sky130_fd_sc_hd__mux2_1
*I *4075:S I *D sky130_fd_sc_hd__mux2_1
*I *4067:S I *D sky130_fd_sc_hd__mux2_1
*I *4485:S I *D sky130_fd_sc_hd__mux2_1
*I *4083:S I *D sky130_fd_sc_hd__mux2_1
*I *4115:S I *D sky130_fd_sc_hd__mux2_1
*I *5046:X O *D sky130_fd_sc_hd__buf_2
*CAP
1 *4107:S 0
2 *4099:S 0.000145272
3 *4091:S 0.000111625
4 *4075:S 0
5 *4067:S 0
6 *4485:S 7.95754e-05
7 *4083:S 2.61242e-05
8 *4115:S 0.000127005
9 *5046:X 0.000239037
10 *993:56 0.000551974
11 *993:54 0.000546596
12 *993:43 0.000317458
13 *993:37 0.000466365
14 *993:35 0.000387413
15 *993:31 0.000731673
16 *993:10 0.000993177
17 *4083:S *4083:A1 4.66108e-05
18 *4091:S *4214:A1 0.000160213
19 *4099:S *4099:A0 8.1487e-05
20 *4115:S *994:29 0.000245893
21 *4115:S *1007:39 4.66108e-05
22 *4115:S *1014:14 4.82863e-05
23 *993:10 *4747:A 5.17961e-05
24 *993:10 *994:29 0.000191642
25 *993:31 *4605:RESET_B 5.8322e-05
26 *993:35 *4605:RESET_B 0.000196048
27 *993:37 *4099:A0 1.1561e-05
28 *993:37 *4212:A2 1.03755e-05
29 *993:37 *4214:A1 9.68787e-05
30 *993:37 *4589:RESET_B 0
31 *993:37 *4605:RESET_B 0.000138544
32 *993:37 *4875:A 7.03934e-05
33 *993:37 *1083:8 4.70628e-05
34 *993:43 *4083:A1 0.000171712
35 *993:43 *4589:RESET_B 0
36 *993:43 *1014:26 0
37 *993:43 *1034:65 0
38 *993:54 *4083:A1 0
39 *993:54 *1034:65 0.000155176
40 *993:54 *1067:16 0
41 *993:56 *4847:A 0
42 *993:56 *1034:58 0.000233925
43 *993:56 *1034:65 0.00018471
44 *993:56 *1067:16 0
45 *4067:A0 *993:56 0.000206149
46 *4075:A1 *993:56 4.5783e-05
47 *4091:A0 *993:35 1.19928e-05
48 *4091:A0 *993:37 4.48373e-06
49 *4091:A0 *993:43 0
50 *4091:A1 *993:43 0
51 *4099:A1 *4099:S 9.28013e-05
52 *4485:A0 *4485:S 9.428e-05
53 *4485:A0 *993:56 1.1561e-05
54 *4581:D *4091:S 5.83121e-06
55 *4605:D *4115:S 3.68682e-05
56 *4687:D *993:56 0
57 *4957:A *993:31 0.000197726
58 *5046:A *993:10 0.000160635
59 *624:31 *993:31 5.83121e-06
60 *624:35 *993:31 0.000662346
61 *992:12 *4115:S 0
62 *992:12 *993:10 0
*RES
1 *5046:X *993:10 7.995 
2 *993:10 *4115:S 6.96 
3 *993:10 *993:31 12.245 
4 *993:31 *993:35 4.175 
5 *993:35 *993:37 4.185 
6 *993:37 *993:43 5.885 
7 *993:43 *4083:S 2.05 
8 *993:43 *993:54 3.89 
9 *993:54 *993:56 10.56 
10 *993:56 *4485:S 5.49 
11 *993:56 *4067:S 3.6 
12 *993:54 *4075:S 3.6 
13 *993:37 *4091:S 5.775 
14 *993:35 *4099:S 6.39 
15 *993:31 *4107:S 1.6 
*END

*D_NET *994 0.027804
*CONN
*I *4747:A I *D sky130_fd_sc_hd__clkdlybuf4s25_1
*I *4484:S I *D sky130_fd_sc_hd__mux2_1
*I *4746:A I *D sky130_fd_sc_hd__clkdlybuf4s25_1
*I *4123:S I *D sky130_fd_sc_hd__mux2_1
*I *4486:S I *D sky130_fd_sc_hd__mux2_1
*I *4748:X O *D sky130_fd_sc_hd__clkdlybuf4s25_1
*CAP
1 *4747:A 9.20921e-05
2 *4484:S 0.00139323
3 *4746:A 8.02182e-06
4 *4123:S 0.00020948
5 *4486:S 5.77876e-05
6 *4748:X 9.87008e-05
7 *994:69 0.00336545
8 *994:50 0.00329147
9 *994:29 0.00205808
10 *994:25 0.00279855
11 *994:10 0.00232556
12 *4484:S *4011:A1 0.000196401
13 *4484:S *4781:A 0.000124895
14 *4484:S *1036:14 3.45438e-05
15 *4486:S *1017:12 0
16 *4746:A *1008:27 4.77769e-05
17 *4747:A *1099:10 0
18 *994:25 *4503:RESET_B 0.000147489
19 *994:29 *4215:A1_N 8.71079e-05
20 *994:29 *4613:RESET_B 0.00011398
21 *994:29 *4815:A 0.000129056
22 *994:29 *1007:39 0
23 *994:50 *4041:A0 6.45236e-05
24 *994:50 *4128:A_N 5.12942e-05
25 *994:50 *4485:A1 0.000280085
26 *994:50 *4541:RESET_B 0.00024612
27 *994:50 *4689:RESET_B 0
28 *994:50 *4771:A 0
29 *994:50 *4966:A 0
30 *994:50 *1032:54 0.000374844
31 *994:50 *1032:64 0.000108329
32 *994:50 *1110:18 0
33 *994:69 *4012:A1 0.000201508
34 *994:69 *4615:RESET_B 0.000117544
35 *994:69 *1006:6 0.00154215
36 *994:69 *1008:27 8.23457e-05
37 *994:69 *1032:54 0.000384625
38 *994:69 *1036:14 3.08098e-05
39 *4012:A0 *994:69 2.7441e-05
40 *4012:S *4484:S 0.000297263
41 *4012:S *994:69 0.00120196
42 *4041:A1 *994:50 1.34361e-05
43 *4043:A1 *994:29 0
44 *4043:S *994:50 0.000473648
45 *4115:A0 *994:29 0.000247143
46 *4115:S *994:29 0.000245893
47 *4126:A0 *994:50 0.000319167
48 *4201:C *994:50 0
49 *4214:A2 *994:29 0
50 *4214:B1 *4747:A 0
51 *4215:B2 *994:29 0.000128437
52 *4273:A3 *994:69 0.000132827
53 *4311:A2 *994:50 5.93844e-05
54 *4316:B1 *994:50 0
55 *4484:A0 *4484:S 8.8266e-05
56 *4486:A0 *4486:S 9.5799e-06
57 *4486:A0 *994:10 0.000113816
58 *4509:D *994:69 0.000163199
59 *4517:CLK *994:50 0
60 *4533:D *994:50 0.00011852
61 *4599:D *994:69 0.000506197
62 *4686:D *4484:S 7.60965e-05
63 *4693:A *4746:A 4.89395e-05
64 *4693:A *994:69 7.20926e-05
65 *4702:A *4123:S 0.000144203
66 *4702:A *994:50 0.000575183
67 *4718:A *4484:S 0.000163199
68 *4719:A *994:69 0.000102411
69 *4845:A *994:50 0
70 *5023:A *4484:S 0.000124895
71 *5036:A *4484:S 4.82919e-05
72 *5046:A *4747:A 4.82919e-05
73 *3:30 *994:25 0.00149728
74 *458:18 *994:50 1.59562e-05
75 *620:17 *994:69 5.92191e-05
76 *623:6 *4123:S 4.85494e-05
77 *623:109 *994:50 0
78 *696:18 *4484:S 9.66106e-05
79 *991:12 *994:69 8.81618e-05
80 *991:14 *994:69 1.94723e-05
81 *991:18 *994:69 0.000121696
82 *992:12 *994:29 0
83 *993:10 *4747:A 5.17961e-05
84 *993:10 *994:29 0.000191642
*RES
1 *4748:X *994:10 5.1375 
2 *994:10 *4486:S 4.5975 
3 *994:10 *994:25 6.9812 
4 *994:25 *994:29 15.4925 
5 *994:29 *4123:S 5.17 
6 *994:29 *994:50 33.91 
7 *994:50 *4746:A 2.05 
8 *994:50 *994:69 49.2325 
9 *994:69 *4484:S 27.4075 
10 *994:25 *4747:A 5.3025 
*END

*D_NET *995 0.0131761
*CONN
*I *4049:A0 I *D sky130_fd_sc_hd__mux2_1
*I *3993:A1 I *D sky130_fd_sc_hd__mux2_1
*I *4031:A0 I *D sky130_fd_sc_hd__mux2_1
*I *4058:A0 I *D sky130_fd_sc_hd__mux2_1
*I *4002:A1 I *D sky130_fd_sc_hd__mux2_1
*I *4040:A0 I *D sky130_fd_sc_hd__mux2_1
*I *4021:A1 I *D sky130_fd_sc_hd__mux2_1
*I *4484:A1 I *D sky130_fd_sc_hd__mux2_1
*I *4011:A1 I *D sky130_fd_sc_hd__mux2_1
*I *5032:X O *D sky130_fd_sc_hd__clkdlybuf4s25_1
*CAP
1 *4049:A0 0.000220212
2 *3993:A1 0.000627895
3 *4031:A0 0.000409928
4 *4058:A0 2.21093e-05
5 *4002:A1 0.000295117
6 *4040:A0 0.000184333
7 *4021:A1 0
8 *4484:A1 0
9 *4011:A1 0.00106535
10 *5032:X 0.000388272
11 *995:81 0.00103782
12 *995:79 0.000271656
13 *995:68 0.000210632
14 *995:57 0.00046769
15 *995:46 0.000496499
16 *995:37 0.000481064
17 *995:6 0.00124923
18 *3993:A1 *4548:RESET_B 2.75145e-05
19 *4049:A0 *4524:SET_B 0.00013534
20 *4049:A0 *1016:12 6.95166e-05
21 *4049:A0 *1045:106 6.47516e-05
22 *995:37 *4174:A1 1.20741e-05
23 *995:37 *4174:B1 4.60584e-05
24 *995:37 *4174:C1 4.82919e-05
25 *995:37 *1039:16 7.55391e-05
26 *995:46 *4174:B1 2.17782e-05
27 *995:46 *1016:12 2.12957e-05
28 *995:46 *1016:14 9.71535e-05
29 *995:46 *1039:16 0.000119227
30 *995:57 *1016:12 3.05648e-05
31 *995:68 *1016:12 0.00013266
32 *995:79 *1016:12 4.92192e-05
33 *3993:A0 *3993:A1 2.11084e-05
34 *3997:S *4002:A1 0.000201645
35 *4011:A0 *4011:A1 0.000203178
36 *4011:A0 *995:37 4.82919e-05
37 *4021:S *995:46 0.000360758
38 *4031:A1 *3993:A1 7.27298e-06
39 *4031:A1 *4031:A0 0.000272615
40 *4031:S *4031:A0 0
41 *4058:A1 *4058:A0 5.83121e-06
42 *4174:A2 *995:37 0
43 *4174:A2 *995:46 0
44 *4177:B1 *995:37 9.91257e-05
45 *4484:A0 *4011:A1 4.99619e-05
46 *4484:A0 *995:6 0.000164874
47 *4484:S *4011:A1 0.000196401
48 *4492:D *3993:A1 1.51976e-05
49 *4500:D *4002:A1 4.77807e-05
50 *4817:A *4011:A1 8.65905e-05
51 *5023:A *4011:A1 0.000124895
52 *5032:A *995:6 0.000278117
53 *268:101 *4011:A1 0.000330693
54 *268:107 *995:37 0.000545352
55 *270:18 *4049:A0 0.000532676
56 *270:18 *995:46 0.000195233
57 *270:18 *995:57 9.10613e-05
58 *270:18 *995:68 0.000365536
59 *270:18 *995:79 0.00013661
60 *273:94 *4040:A0 0.000269335
61 *274:50 *4031:A0 7.35729e-05
62 *275:81 *4058:A0 2.69153e-05
63 *656:10 *995:46 0
64 *688:8 *3993:A1 4.66826e-05
65 *696:18 *4011:A1 0
*RES
1 *5032:X *995:6 8.26 
2 *995:6 *4011:A1 20.795 
3 *995:6 *4484:A1 1.6 
4 *4011:A1 *995:37 10.17 
5 *995:37 *4021:A1 3.6 
6 *995:37 *995:46 7.5 
7 *995:46 *4040:A0 6.12 
8 *995:46 *995:57 1.125 
9 *995:57 *4002:A1 8.535 
10 *995:57 *995:68 4.44 
11 *995:68 *4058:A0 4.05 
12 *995:68 *995:79 1.635 
13 *995:79 *995:81 2 
14 *995:81 *4031:A0 7.855 
15 *995:81 *3993:A1 8.53 
16 *995:79 *4049:A0 10.275 
*END

*D_NET *996 0.00310997
*CONN
*I *4090:S I *D sky130_fd_sc_hd__mux2_1
*I *5047:A I *D sky130_fd_sc_hd__clkbuf_4
*I *4749:X O *D sky130_fd_sc_hd__clkdlybuf4s25_1
*CAP
1 *4090:S 0.000678441
2 *5047:A 0.000149658
3 *4749:X 0
4 *996:4 0.000828099
5 *4090:S *4183:A2 6.47516e-05
6 *4090:S *4749:A 4.12775e-05
7 *4090:S *1005:74 0.000303285
8 *4090:S *1082:23 4.05358e-05
9 *5047:A *4074:S 0.000158552
10 *4098:A0 *4090:S 7.36568e-05
11 *775:12 *4090:S 0.000456283
12 *983:30 *4090:S 9.54225e-05
13 *983:30 *5047:A 0.000220007
*RES
1 *4749:X *996:4 1.6 
2 *996:4 *5047:A 5.155 
3 *996:4 *4090:S 17.645 
*END

*D_NET *997 0.00907213
*CONN
*I *4074:S I *D sky130_fd_sc_hd__mux2_1
*I *4082:S I *D sky130_fd_sc_hd__mux2_1
*I *4079:S I *D sky130_fd_sc_hd__mux2_1
*I *4087:S I *D sky130_fd_sc_hd__mux2_1
*I *4095:S I *D sky130_fd_sc_hd__mux2_1
*I *4103:S I *D sky130_fd_sc_hd__mux2_1
*I *3988:S I *D sky130_fd_sc_hd__mux2_1
*I *4066:S I *D sky130_fd_sc_hd__mux2_1
*I *4071:S I *D sky130_fd_sc_hd__mux2_1
*I *5047:X O *D sky130_fd_sc_hd__clkbuf_4
*CAP
1 *4074:S 0.00020928
2 *4082:S 0
3 *4079:S 0
4 *4087:S 0
5 *4095:S 0.000354041
6 *4103:S 3.34419e-05
7 *3988:S 0
8 *4066:S 0.000172344
9 *4071:S 0.000144926
10 *5047:X 0.000619028
11 *997:55 0.000606403
12 *997:37 0.000441349
13 *997:24 0.000480541
14 *997:22 0.000285529
15 *997:20 0.000229135
16 *997:14 0.000459762
17 *997:12 0.000640375
18 *4071:S *4846:A 0
19 *4074:S *4917:A 0.000132946
20 *4095:S *1087:8 3.06667e-05
21 *4103:S *4185:A1 0.000235382
22 *997:12 *4917:A 0
23 *997:12 *4982:A 0
24 *997:20 *4087:A1 4.80285e-05
25 *997:20 *4360:A1 1.34503e-05
26 *997:20 *1071:23 0.000113809
27 *997:24 *1071:12 6.28843e-05
28 *997:37 *1071:12 0.000276966
29 *997:55 *1071:12 1.70935e-05
30 *3988:A1 *4066:S 0.000393029
31 *4074:A1 *4103:S 0.000235382
32 *4082:A0 *997:12 3.45588e-05
33 *4082:A1 *997:12 3.72916e-05
34 *4082:A1 *997:14 4.9253e-06
35 *4360:A2 *997:55 0
36 *4360:B1 *997:55 0
37 *4489:RESET_B *997:37 2.40185e-05
38 *4561:D *4071:S 4.70343e-05
39 *4564:D *997:12 0.000311778
40 *4593:D *4095:S 0.000259873
41 *4797:A *4071:S 0.000150019
42 *4797:A *997:24 1.73877e-05
43 *5047:A *4074:S 0.000158552
44 *280:69 *4095:S 0.000419409
45 *618:8 *4095:S 6.4655e-05
46 *698:46 *4071:S 9.71067e-05
47 *698:53 *4071:S 5.39961e-05
48 *698:53 *997:24 0.000153794
49 *698:53 *997:55 0.000172845
50 *698:64 *4095:S 2.41556e-05
51 *698:64 *997:55 0.000103821
52 *983:30 *4074:S 1.54665e-05
53 *985:24 *997:14 7.74694e-05
54 *985:24 *997:20 7.68414e-06
55 *986:65 *4095:S 0.000600496
*RES
1 *5047:X *997:12 13.4 
2 *997:12 *997:14 3.9 
3 *997:14 *997:20 3.93 
4 *997:20 *997:22 2 
5 *997:22 *997:24 1.89 
6 *997:24 *4071:S 7.785 
7 *997:24 *997:37 7.625 
8 *997:37 *4066:S 5.5 
9 *997:37 *3988:S 1.6 
10 *997:22 *997:55 4.74 
11 *997:55 *4103:S 5.775 
12 *997:55 *4095:S 14.07 
13 *997:20 *4087:S 1.6 
14 *997:14 *4079:S 1.6 
15 *997:12 *4082:S 1.6 
16 *5047:X *4074:S 10.665 
*END

*D_NET *998 0.00890335
*CONN
*I *4098:S I *D sky130_fd_sc_hd__mux2_1
*I *4106:S I *D sky130_fd_sc_hd__mux2_1
*I *4127:S I *D sky130_fd_sc_hd__mux2_1
*I *4119:S I *D sky130_fd_sc_hd__mux2_1
*I *4111:S I *D sky130_fd_sc_hd__mux2_1
*I *4750:X O *D sky130_fd_sc_hd__clkdlybuf4s25_1
*CAP
1 *4098:S 0
2 *4106:S 0.000742333
3 *4127:S 0
4 *4119:S 3.539e-05
5 *4111:S 0.000244427
6 *4750:X 0.000160049
7 *998:63 0.00133387
8 *998:48 0.00103233
9 *998:18 0.000672777
10 *998:10 0.000993806
11 *4106:S *4106:A0 1.33293e-05
12 *4106:S *4184:A1 4.23878e-05
13 *4106:S *4184:B2 0
14 *4106:S *4895:A 0.000200615
15 *4106:S *1066:10 3.51628e-05
16 *4111:S *4362:A1 1.01661e-05
17 *998:10 *4119:A1 2.95721e-05
18 *998:10 *4991:A 5.0652e-05
19 *998:18 *4119:A1 7.94119e-05
20 *998:48 *4127:A1 4.21973e-05
21 *998:48 *4363:A1 3.57349e-05
22 *998:48 *4991:A 1.91597e-05
23 *998:48 *1103:6 0.00015896
24 *998:63 *4183:A1 4.22806e-05
25 *998:63 *4184:A1 0.00014885
26 *998:63 *4184:B2 0
27 *4098:A0 *4106:S 7.83773e-05
28 *4106:A1 *4106:S 9.93004e-05
29 *4111:A0 *4111:S 0.000180576
30 *4111:A1 *4111:S 9.50342e-06
31 *4127:A0 *998:48 2.18022e-05
32 *4127:A0 *998:63 8.65905e-05
33 *4184:B1 *998:63 0.000661855
34 *4362:B1 *4111:S 4.31921e-05
35 *4362:B2 *4119:S 3.52139e-07
36 *4362:C1 *4111:S 0.000116147
37 *4364:A1 *998:63 0.000111634
38 *4365:B1 *4111:S 0
39 *4369:C1 *998:63 0
40 *4374:A *998:18 0.000211757
41 *4564:RESET_B *4106:S 5.78185e-05
42 *4572:RESET_B *4106:S 0.00038201
43 *4580:D *4106:S 1.26626e-05
44 *4580:RESET_B *4106:S 8.34348e-05
45 *4609:RESET_B *998:63 0
46 *4617:CLK *4111:S 1.83847e-05
47 *4617:CLK *998:18 3.52525e-05
48 *4697:A *998:10 0
49 *4896:A *4106:S 0.000239807
50 *4965:A *998:48 0.000118081
51 *3:30 *998:10 3.04457e-05
52 *618:165 *4111:S 2.04147e-05
53 *697:12 *4106:S 0.00015829
54 *891:26 *998:48 2.19562e-06
*RES
1 *4750:X *998:10 6.195 
2 *998:10 *998:18 7.565 
3 *998:18 *4111:S 10.205 
4 *998:18 *4119:S 2.215 
5 *998:10 *998:48 7.55 
6 *998:48 *4127:S 1.6 
7 *998:48 *998:63 15.695 
8 *998:63 *4106:S 20.52 
9 *998:63 *4098:S 3.6 
*END

*D_NET *999 0.00566217
*CONN
*I *5048:A I *D sky130_fd_sc_hd__buf_2
*I *4120:S I *D sky130_fd_sc_hd__mux2_1
*I *4112:S I *D sky130_fd_sc_hd__mux2_1
*I *4104:S I *D sky130_fd_sc_hd__mux2_1
*I *4751:X O *D sky130_fd_sc_hd__clkdlybuf4s25_1
*CAP
1 *5048:A 2.75375e-05
2 *4120:S 0.000130113
3 *4112:S 0
4 *4104:S 0.000490935
5 *4751:X 0.000111019
6 *999:16 0.00154766
7 *999:10 0.00106517
8 *5048:A *1057:28 0.000201508
9 *999:10 *1000:14 7.23533e-05
10 *999:16 *4183:C1 0
11 *999:16 *4762:A 0
12 *999:16 *1060:12 0.000191252
13 *4065:A0 *5048:A 0.000201508
14 *4068:A0 *999:10 4.66108e-05
15 *4104:A1 *4104:S 2.30292e-05
16 *4120:A0 *4120:S 8.65961e-05
17 *4558:D *999:10 0
18 *4558:D *999:16 0
19 *4574:CLK *999:16 0
20 *4574:D *999:16 0
21 *4594:RESET_B *4104:S 4.19967e-05
22 *4594:RESET_B *999:16 0
23 *4602:D *4104:S 0.000352265
24 *4610:D *4104:S 7.06865e-05
25 *4610:D *4120:S 8.43862e-05
26 *4610:D *999:16 2.49909e-05
27 *4795:A *999:16 0.00011852
28 *295:16 *4104:S 0
29 *295:16 *999:16 0.000312083
30 *626:12 *999:16 0
31 *626:136 *999:16 0
32 *626:142 *999:16 0
33 *702:54 *4104:S 2.78506e-05
34 *982:34 *4120:S 0.000284637
35 *982:34 *999:16 0.000121948
36 *983:20 *4120:S 2.75229e-05
*RES
1 *4751:X *999:10 5.43 
2 *999:10 *999:16 19.82 
3 *999:16 *4104:S 13.43 
4 *999:16 *4112:S 1.6 
5 *999:16 *4120:S 5.155 
6 *999:10 *5048:A 5.43 
*END

*D_NET *1000 0.00808832
*CONN
*I *4068:S I *D sky130_fd_sc_hd__mux2_1
*I *4065:S I *D sky130_fd_sc_hd__mux2_1
*I *4064:S I *D sky130_fd_sc_hd__mux2_1
*I *4072:S I *D sky130_fd_sc_hd__mux2_1
*I *4080:S I *D sky130_fd_sc_hd__mux2_1
*I *4088:S I *D sky130_fd_sc_hd__mux2_1
*I *4096:S I *D sky130_fd_sc_hd__mux2_1
*I *5048:X O *D sky130_fd_sc_hd__buf_2
*CAP
1 *4068:S 0
2 *4065:S 0
3 *4064:S 9.8164e-05
4 *4072:S 2.61242e-05
5 *4080:S 2.6306e-05
6 *4088:S 0.000104023
7 *4096:S 0.000172253
8 *5048:X 0.000178042
9 *1000:28 0.000420259
10 *1000:26 0.000229123
11 *1000:24 0.000397463
12 *1000:22 0.000690341
13 *1000:16 0.000325812
14 *1000:14 0.000224181
15 *4080:S *4080:A0 4.66108e-05
16 *4080:S *1029:90 8.23457e-05
17 *4088:S *4088:A1 4.21973e-05
18 *4088:S *4146:B2 2.49909e-05
19 *4088:S *4983:A 8.40213e-05
20 *4096:S *4096:A1 8.5621e-05
21 *4096:S *1072:10 4.83522e-05
22 *1000:14 *1001:44 0.000124895
23 *1000:14 *1057:28 8.8266e-05
24 *1000:16 *1001:44 0.000394699
25 *1000:22 *4843:A 6.10082e-05
26 *1000:22 *1001:44 0.000431333
27 *1000:24 *4147:A1 0
28 *1000:26 *4080:A0 2.07184e-05
29 *1000:28 *4080:A0 0.000224473
30 *1000:28 *4143:C1 2.05661e-05
31 *1000:28 *1072:10 0.000282818
32 *4064:A0 *4064:S 6.97118e-05
33 *4064:A1 *1000:22 0
34 *4068:A0 *1000:14 6.6564e-05
35 *4068:A0 *1000:16 2.30292e-05
36 *4068:A1 *1000:16 0.000344737
37 *4068:A1 *1000:22 0.000431333
38 *4072:A1 *1000:24 0.000250249
39 *4096:A0 *4096:S 3.00381e-05
40 *4555:D *1000:22 0
41 *4555:RESET_B *1000:22 0
42 *4555:RESET_B *1000:24 0
43 *4558:CLK *1000:22 6.52906e-05
44 *4558:CLK *1000:24 2.97004e-06
45 *4562:RESET_B *1000:24 0.000202314
46 *4562:RESET_B *1000:26 0.000152326
47 *4685:RESET_B *1000:22 0
48 *4685:RESET_B *1000:24 0
49 *4725:A *4096:S 9.39388e-06
50 *4740:A *4096:S 2.75145e-05
51 *4951:A *4096:S 8.68767e-06
52 *429:6 *4080:S 1.91597e-05
53 *701:14 *4096:S 0.000322277
54 *701:14 *1000:28 0.000332913
55 *724:12 *4072:S 4.66108e-05
56 *724:12 *1000:24 3.4222e-05
57 *800:14 *4064:S 4.80285e-05
58 *800:14 *1000:24 0
59 *982:77 *1000:24 0.000232258
60 *982:77 *1000:26 0.000204463
61 *982:77 *1000:28 0.00013687
62 *999:10 *1000:14 7.23533e-05
*RES
1 *5048:X *1000:14 9.17 
2 *1000:14 *1000:16 3.555 
3 *1000:16 *1000:22 10.085 
4 *1000:22 *1000:24 8.265 
5 *1000:24 *1000:26 2.4 
6 *1000:26 *1000:28 5.97 
7 *1000:28 *4096:S 8.235 
8 *1000:28 *4088:S 5.43 
9 *1000:26 *4080:S 4.395 
10 *1000:24 *4072:S 4.05 
11 *1000:22 *4064:S 5.43 
12 *1000:16 *4065:S 1.6 
13 *1000:14 *4068:S 1.6 
*END

*D_NET *1001 0.00641729
*CONN
*I *4483:S I *D sky130_fd_sc_hd__mux2_1
*I *4482:S I *D sky130_fd_sc_hd__mux2_1
*I *4751:A I *D sky130_fd_sc_hd__clkdlybuf4s25_1
*I *4084:S I *D sky130_fd_sc_hd__mux2_1
*I *4076:S I *D sky130_fd_sc_hd__mux2_1
*I *4752:X O *D sky130_fd_sc_hd__clkdlybuf4s25_1
*CAP
1 *4483:S 0
2 *4482:S 6.38103e-05
3 *4751:A 0
4 *4084:S 7.1163e-05
5 *4076:S 0.000268807
6 *4752:X 0.000153959
7 *1001:44 0.000359957
8 *1001:33 0.000358225
9 *1001:8 0.000431852
10 *4076:S *4752:A 0
11 *4076:S *1005:46 0
12 *1001:8 *4752:A 0
13 *1001:8 *1057:28 3.86607e-05
14 *4065:A0 *4084:S 4.35432e-05
15 *4068:A0 *4076:S 0.000290088
16 *4068:A0 *1001:8 6.47933e-05
17 *4068:A0 *1001:33 0.000163199
18 *4068:A0 *1001:44 0.000106908
19 *4068:A1 *4482:S 0.000178331
20 *4068:A1 *1001:44 0.000318501
21 *4084:A0 *4084:S 8.65905e-05
22 *4482:A0 *4482:S 0.000163199
23 *4748:A *1001:44 0.000311666
24 *271:6 *4482:S 0.000199541
25 *271:6 *1001:33 9.70988e-05
26 *271:6 *1001:44 0.00169191
27 *729:10 *4076:S 4.55864e-06
28 *1000:14 *1001:44 0.000124895
29 *1000:16 *1001:44 0.000394699
30 *1000:22 *1001:44 0.000431333
*RES
1 *4752:X *1001:8 5.235 
2 *1001:8 *4076:S 9.57 
3 *1001:8 *4084:S 5.085 
4 *4752:X *1001:33 3.775 
5 *1001:33 *4751:A 1.6 
6 *1001:33 *1001:44 16.26 
7 *1001:44 *4482:S 4.81 
8 *1001:44 *4483:S 1.6 
*END

*D_NET *1002 0.00219037
*CONN
*I *5049:A I *D sky130_fd_sc_hd__clkbuf_4
*I *4081:S I *D sky130_fd_sc_hd__mux2_1
*I *4753:X O *D sky130_fd_sc_hd__clkdlybuf4s25_1
*CAP
1 *5049:A 0.000137329
2 *4081:S 0.000269664
3 *4753:X 0.000406993
4 *4081:S *4753:A 0.000252485
5 *4081:S *4967:A 0.000537207
6 *5049:A *4967:A 8.8266e-05
7 *265:6 *4081:S 8.73389e-06
8 *265:6 *5049:A 0.000471307
9 *921:12 *5049:A 1.83847e-05
*RES
1 *4753:X *4081:S 14.145 
2 *4753:X *5049:A 7.445 
*END

*D_NET *1003 0.0116291
*CONN
*I *4089:S I *D sky130_fd_sc_hd__mux2_1
*I *4097:S I *D sky130_fd_sc_hd__mux2_1
*I *4108:S I *D sky130_fd_sc_hd__mux2_1
*I *4100:S I *D sky130_fd_sc_hd__mux2_1
*I *4092:S I *D sky130_fd_sc_hd__mux2_1
*I *4116:S I *D sky130_fd_sc_hd__mux2_1
*I *4124:S I *D sky130_fd_sc_hd__mux2_1
*I *4073:S I *D sky130_fd_sc_hd__mux2_1
*I *4105:S I *D sky130_fd_sc_hd__mux2_1
*I *5049:X O *D sky130_fd_sc_hd__clkbuf_4
*CAP
1 *4089:S 8.36962e-05
2 *4097:S 0
3 *4108:S 0
4 *4100:S 0.000317349
5 *4092:S 0.000433647
6 *4116:S 5.51153e-05
7 *4124:S 0.000482242
8 *4073:S 1.65033e-05
9 *4105:S 0.000431311
10 *5049:X 7.18562e-05
11 *1003:58 0.000719149
12 *1003:52 0.00068677
13 *1003:50 0.000432809
14 *1003:46 0.000605833
15 *1003:44 0.000701353
16 *1003:18 0.000535177
17 *1003:16 0.000559918
18 *1003:10 0.000488458
19 *4073:S *4073:A0 2.49909e-05
20 *4092:S *4092:A0 1.61831e-05
21 *4092:S *4246:B 0.000260369
22 *4092:S *4822:A 8.41307e-05
23 *4100:S *4160:A 0.000195948
24 *4100:S *1100:20 1.51732e-05
25 *4105:S *4165:D 0
26 *4105:S *4955:A 0.000132335
27 *4105:S *1012:38 6.8665e-05
28 *4116:S *4116:A0 8.60799e-05
29 *4116:S *1130:29 0.000272485
30 *4124:S *4160:A 3.69868e-05
31 *4124:S *4242:D 0.000131168
32 *4124:S *4959:A 0
33 *1003:16 *4164:D 0
34 *1003:18 *4164:D 0
35 *1003:46 *1011:94 3.63661e-05
36 *1003:50 *1011:94 4.21579e-05
37 *1003:50 *1019:114 0.000121643
38 *1003:52 *1019:114 3.78789e-05
39 *1003:52 *1100:20 6.51403e-05
40 *1003:58 *4242:D 0.000154557
41 *1003:58 *1019:114 2.46489e-05
42 *1003:58 *1100:20 1.23268e-05
43 *4089:A0 *4089:S 0.00011964
44 *4089:A1 *4089:S 2.11084e-05
45 *4092:A1 *4092:S 2.75229e-05
46 *4097:A1 *4089:S 6.6564e-05
47 *4097:A1 *1003:16 0.00011964
48 *4100:A0 *4100:S 4.77757e-05
49 *4105:A1 *4105:S 1.95374e-05
50 *4108:A0 *1003:46 0.00015896
51 *4116:A1 *4116:S 7.40635e-05
52 *4166:B *4105:S 0
53 *4166:B *1003:18 0
54 *4166:D *4105:S 0
55 *4247:A2 *4124:S 7.13392e-05
56 *4247:A2 *1003:46 4.66108e-05
57 *4247:A2 *1003:50 8.6076e-05
58 *4247:C1 *4100:S 0
59 *4248:A2 *4124:S 0
60 *4248:B2 *4124:S 0
61 *4248:B2 *1003:58 0
62 *4579:D *1003:16 0
63 *4587:D *1003:16 3.89528e-05
64 *4590:RESET_B *1003:16 9.40874e-05
65 *4598:D *1003:46 3.09179e-05
66 *4603:D *4105:S 8.53113e-06
67 *4606:D *4124:S 9.16019e-05
68 *4606:RESET_B *4124:S 0
69 *4610:RESET_B *4124:S 0
70 *4805:A *1003:16 0
71 *4823:A *4124:S 0.000110492
72 *4856:A *4092:S 0.000122699
73 *5039:A *4105:S 0.00012476
74 *271:6 *4089:S 0.000230925
75 *271:6 *1003:16 0.000117116
76 *313:10 *4073:S 4.66108e-05
77 *392:18 *4124:S 3.75754e-05
78 *627:52 *1003:16 0
79 *627:76 *1003:16 0
80 *627:80 *4100:S 4.77757e-05
81 *704:10 *4105:S 0.000309452
82 *704:10 *1003:16 0.000133075
83 *704:10 *1003:18 0.000150349
84 *704:22 *1003:16 0.000269048
85 *921:12 *1003:10 4.40899e-05
86 *921:12 *1003:16 0
87 *982:34 *4124:S 0.00016031
88 *983:20 *4124:S 0.000161467
*RES
1 *5049:X *1003:10 6.98 
2 *1003:10 *1003:16 10.31 
3 *1003:16 *1003:18 1.89 
4 *1003:18 *4105:S 12.345 
5 *1003:18 *4073:S 4.05 
6 *1003:16 *1003:44 3.83 
7 *1003:44 *1003:46 9.075 
8 *1003:46 *1003:50 3.485 
9 *1003:50 *1003:52 1.635 
10 *1003:52 *1003:58 3.555 
11 *1003:58 *4124:S 13.35 
12 *1003:58 *4116:S 6.12 
13 *1003:52 *4092:S 11.31 
14 *1003:50 *4100:S 10.035 
15 *1003:46 *4108:S 1.6 
16 *1003:44 *4097:S 1.6 
17 *1003:10 *4089:S 5.155 
*END

*D_NET *1004 0.0083773
*CONN
*I *4392:B I *D sky130_fd_sc_hd__nor2_2
*I *4121:S I *D sky130_fd_sc_hd__mux2_1
*I *4113:S I *D sky130_fd_sc_hd__mux2_1
*I *4478:B I *D sky130_fd_sc_hd__or4_2
*I *4481:A I *D sky130_fd_sc_hd__nor2_2
*I *4754:X O *D sky130_fd_sc_hd__clkdlybuf4s25_1
*CAP
1 *4392:B 0
2 *4121:S 0.000260919
3 *4113:S 2.03843e-05
4 *4478:B 8.76197e-05
5 *4481:A 0.000405275
6 *4754:X 6.22616e-05
7 *1004:60 0.000900611
8 *1004:46 0.000962818
9 *1004:10 0.000684202
10 *1004:8 0.000597079
11 *4113:S *4955:A 0.000124895
12 *4121:S *1012:38 0
13 *4481:A *1011:8 4.66108e-05
14 *4481:A *1012:6 0.000180373
15 *4481:A *1012:14 0.000177127
16 *1004:8 *1029:25 0.000107634
17 *1004:10 *1029:25 0.000182757
18 *1004:10 *1029:45 0
19 *1004:46 *1019:26 0.000160424
20 *1004:60 *4163:A2 0
21 *1004:60 *4955:A 0.000162929
22 *1004:60 *1011:16 0.000374239
23 *1004:60 *1019:26 5.83121e-06
24 *1004:60 *1019:32 0.000330434
25 *1004:60 *1019:38 3.09233e-05
26 *1004:60 *1026:22 1.15688e-05
27 *4113:A0 *4113:S 2.05056e-05
28 *4113:A0 *1004:60 0.000261642
29 *4113:A1 *4113:S 8.8266e-05
30 *4392:A *1004:60 0
31 *4475:A1 *1004:8 0
32 *4475:A1 *1004:10 0
33 *4476:C *1004:46 0.00073477
34 *4476:C *1004:60 1.61831e-05
35 *4478:D *4478:B 5.07419e-05
36 *4478:D *4481:A 0
37 *4478:D *1004:10 0
38 *4611:RESET_B *4121:S 0.000210144
39 *4674:RESET_B *1004:46 2.40101e-05
40 *4675:D *1004:46 7.88488e-05
41 *256:44 *4481:A 0.000424626
42 *315:10 *4121:S 1.70935e-05
43 *532:18 *1004:60 0
44 *613:22 *1004:60 0.00026862
45 *706:73 *4121:S 0.000304934
46 *836:8 *1004:10 0
*RES
1 *4754:X *1004:8 4.98 
2 *1004:8 *1004:10 3.675 
3 *1004:10 *4481:A 13.875 
4 *1004:10 *4478:B 4.74 
5 *1004:8 *1004:46 12.02 
6 *1004:46 *1004:60 19.27 
7 *1004:60 *4113:S 2.74 
8 *1004:60 *4121:S 11.57 
9 *1004:46 *4392:B 1.6 
*END

*D_NET *1005 0.0249132
*CONN
*I *4754:A I *D sky130_fd_sc_hd__clkdlybuf4s25_1
*I *4753:A I *D sky130_fd_sc_hd__clkdlybuf4s25_1
*I *4752:A I *D sky130_fd_sc_hd__clkdlybuf4s25_1
*I *4122:S I *D sky130_fd_sc_hd__mux2_1
*I *4114:S I *D sky130_fd_sc_hd__mux2_1
*I *4749:A I *D sky130_fd_sc_hd__clkdlybuf4s25_1
*I *4750:A I *D sky130_fd_sc_hd__clkdlybuf4s25_1
*I *4755:X O *D sky130_fd_sc_hd__clkdlybuf4s25_1
*CAP
1 *4754:A 0
2 *4753:A 0.000295217
3 *4752:A 0.00026179
4 *4122:S 0
5 *4114:S 0.000275045
6 *4749:A 2.12675e-05
7 *4750:A 0.000167476
8 *4755:X 0.000215816
9 *1005:74 0.0012597
10 *1005:59 0.00146892
11 *1005:46 0.00196308
12 *1005:36 0.00400936
13 *1005:16 0.00413604
14 *1005:8 0.00164168
15 *4114:S *4114:A1 0
16 *4114:S *1114:8 0
17 *4114:S *1128:53 1.00941e-05
18 *4752:A *1057:28 0.000135015
19 *4752:A *1084:25 0
20 *4753:A *4967:A 4.58101e-05
21 *1005:16 *4081:A1 2.65814e-06
22 *1005:16 *1029:8 0.000312176
23 *1005:36 *4081:A1 0.000216441
24 *1005:36 *4164:C 1.34503e-05
25 *1005:36 *4164:D 0.000180672
26 *1005:36 *4855:A 8.49205e-05
27 *1005:36 *4967:A 0
28 *1005:36 *1100:20 2.20608e-05
29 *1005:46 *4076:A0 0
30 *1005:46 *4243:B2 0
31 *1005:46 *1021:139 0
32 *1005:46 *1029:55 0.000222813
33 *1005:46 *1104:10 0
34 *1005:59 *3964:A 0.000125533
35 *1005:59 *4184:B2 0.00019465
36 *1005:74 *4186:B2 0.000131567
37 *1005:74 *1012:48 0.000333327
38 *1005:74 *1114:8 0
39 *3974:B *1005:8 4.82919e-05
40 *4076:S *4752:A 0
41 *4076:S *1005:46 0
42 *4081:A0 *4753:A 0.000315337
43 *4081:S *4753:A 0.000252485
44 *4084:A0 *4752:A 0
45 *4084:A1 *4752:A 7.23533e-05
46 *4090:S *4749:A 4.12775e-05
47 *4090:S *1005:74 0.000303285
48 *4092:A1 *1005:46 0
49 *4114:A0 *4114:S 5.56629e-05
50 *4122:A1 *4114:S 0.000442739
51 *4166:C *1005:36 9.50342e-06
52 *4184:B1 *1005:59 0
53 *4243:B1 *1005:46 0
54 *4320:A2 *1005:74 0.00031036
55 *4369:C1 *4750:A 4.41506e-05
56 *4475:A1 *1005:16 6.28765e-05
57 *4566:RESET_B *1005:46 0
58 *4571:RESET_B *1005:36 6.00003e-05
59 *4574:RESET_B *1005:36 1.5913e-05
60 *4598:CLK *1005:36 0.000560893
61 *4674:CLK *1005:16 1.56428e-05
62 *4690:A *4750:A 6.2392e-05
63 *4740:A *1005:46 0.000159462
64 *4755:A *1005:8 3.95724e-05
65 *4755:A *1005:16 0
66 *4935:A *1005:16 3.19126e-05
67 *4972:A *4114:S 0
68 *265:6 *4753:A 4.82919e-05
69 *271:6 *4752:A 5.0751e-05
70 *289:37 *1005:59 0
71 *296:39 *4750:A 0.000178473
72 *296:39 *1005:46 0.000255674
73 *429:22 *1005:46 0.00132343
74 *429:40 *1005:46 8.53113e-06
75 *611:6 *4750:A 4.62883e-05
76 *611:6 *1005:46 6.33103e-05
77 *611:23 *4750:A 0.000269719
78 *611:36 *1005:46 0.000132111
79 *611:49 *1005:46 6.35602e-05
80 *702:28 *1005:59 0.0010417
81 *704:76 *4752:A 0
82 *704:76 *1005:36 7.18452e-06
83 *704:76 *1005:46 0
84 *729:10 *1005:46 0
85 *797:8 *1005:36 0.000347922
86 *847:22 *1005:74 0.000199035
87 *983:20 *1005:46 0
88 *983:30 *4749:A 8.35118e-05
89 *983:30 *1005:74 0.000142971
90 *1001:8 *4752:A 0
*RES
1 *4755:X *1005:8 4.825 
2 *1005:8 *1005:16 20.665 
3 *1005:16 *1005:36 38.7525 
4 *1005:36 *1005:46 31.7675 
5 *1005:46 *4750:A 6.6625 
6 *1005:46 *1005:59 16.345 
7 *1005:59 *4749:A 2.395 
8 *1005:59 *1005:74 21.2 
9 *1005:74 *4114:S 9.57 
10 *1005:74 *4122:S 3.6 
11 *1005:36 *4752:A 8.5425 
12 *1005:16 *4753:A 13.04 
13 *1005:8 *4754:A 1.6 
*END

*D_NET *1006 0.0195854
*CONN
*I *4012:A1 I *D sky130_fd_sc_hd__mux2_1
*I *4032:A0 I *D sky130_fd_sc_hd__mux2_1
*I *4022:A1 I *D sky130_fd_sc_hd__mux2_1
*I *4041:A0 I *D sky130_fd_sc_hd__mux2_1
*I *4485:A1 I *D sky130_fd_sc_hd__mux2_1
*I *4003:A1 I *D sky130_fd_sc_hd__mux2_1
*I *4059:A0 I *D sky130_fd_sc_hd__mux2_1
*I *3994:A1 I *D sky130_fd_sc_hd__mux2_1
*I *4050:A0 I *D sky130_fd_sc_hd__mux2_1
*I *5033:X O *D sky130_fd_sc_hd__clkdlybuf4s25_1
*CAP
1 *4012:A1 5.84538e-05
2 *4032:A0 0
3 *4022:A1 0
4 *4041:A0 2.54834e-05
5 *4485:A1 0.00150219
6 *4003:A1 6.21999e-05
7 *4059:A0 0.000306175
8 *3994:A1 0.00034364
9 *4050:A0 0.000174165
10 *5033:X 0.000834788
11 *1006:86 0.00195164
12 *1006:74 0.000860821
13 *1006:59 0.000752164
14 *1006:48 0.000785259
15 *1006:33 0.000658765
16 *1006:22 0.00131255
17 *1006:12 0.00144814
18 *1006:6 0.00129215
19 *4485:A1 *4771:A 0
20 *4485:A1 *4922:A 0.000159324
21 *1006:12 *3987:A1 0
22 *1006:12 *4509:RESET_B 0.000120186
23 *1006:22 *4330:B 0
24 *1006:22 *4544:RESET_B 0.00038114
25 *1006:22 *4976:A 4.9253e-06
26 *1006:22 *1015:32 0
27 *1006:22 *1015:40 0
28 *1006:22 *1037:61 0.000273597
29 *1006:22 *1037:65 0.000141599
30 *1006:33 *1008:19 0
31 *1006:33 *1015:32 0.000248261
32 *1006:48 *4764:A 0
33 *1006:48 *1008:17 0
34 *1006:48 *1008:19 0
35 *1006:48 *1015:32 0.000137571
36 *1006:59 *4764:A 0
37 *1006:86 *4757:A 7.23602e-05
38 *1006:86 *1022:114 3.67779e-05
39 *4005:S *1006:59 9.77943e-05
40 *4005:S *1006:74 7.06865e-05
41 *4006:A0 *1006:22 0.000134625
42 *4006:S *1006:22 0
43 *4012:A0 *4012:A1 3.00381e-05
44 *4022:A0 *1006:74 0.000451659
45 *4022:A0 *1006:86 4.82863e-05
46 *4032:A1 *1006:12 0
47 *4032:S *1006:12 2.10433e-05
48 *4050:A1 *4050:A0 8.65905e-05
49 *4050:S *4050:A0 0.000461941
50 *4050:S *1006:22 0.000342003
51 *4070:A1 *1006:22 0
52 *4202:A1 *1006:12 0
53 *4203:A1 *4059:A0 0.000386221
54 *4203:C1 *1006:48 4.18603e-06
55 *4203:C1 *1006:59 4.5005e-05
56 *4203:D1 *1006:48 4.27531e-05
57 *4204:A3 *3994:A1 0.000423637
58 *4204:A3 *1006:48 9.19368e-05
59 *4285:A2 *1006:59 0
60 *4331:B2 *1006:22 3.4399e-05
61 *4501:D *1006:59 0
62 *4504:CLK *1006:12 0
63 *4509:D *1006:12 0
64 *4517:D *4041:A0 3.86607e-05
65 *4517:D *4485:A1 1.70935e-05
66 *4517:D *1006:86 4.82863e-05
67 *4525:D *1006:12 0
68 *4525:D *1006:22 1.04258e-05
69 *4689:CLK *1006:86 2.0514e-05
70 *4870:A *1006:59 4.43871e-06
71 *4870:A *1006:74 8.03677e-05
72 *276:23 *4059:A0 0.000204739
73 *622:57 *4003:A1 8.40269e-05
74 *644:8 *1006:22 0.000150005
75 *958:74 *3994:A1 3.96737e-05
76 *958:74 *1006:33 8.18098e-05
77 *994:50 *4041:A0 6.45236e-05
78 *994:50 *4485:A1 0.000280085
79 *994:69 *4012:A1 0.000201508
80 *994:69 *1006:6 0.00154215
*RES
1 *5033:X *1006:6 19.99 
2 *1006:6 *1006:12 10.735 
3 *1006:12 *1006:22 23.35 
4 *1006:22 *4050:A0 5.845 
5 *1006:22 *1006:33 4.91 
6 *1006:33 *3994:A1 8.19 
7 *1006:33 *1006:48 4.23 
8 *1006:48 *4059:A0 10.26 
9 *1006:48 *1006:59 4.695 
10 *1006:59 *4003:A1 4.395 
11 *1006:59 *1006:74 8.15 
12 *1006:74 *1006:86 11.22 
13 *1006:86 *4485:A1 25.845 
14 *1006:86 *4041:A0 4.47 
15 *1006:74 *4022:A1 1.6 
16 *1006:12 *4032:A0 1.6 
17 *1006:6 *4012:A1 3.43 
*END

*D_NET *1007 0.0163045
*CONN
*I *4280:B_N I *D sky130_fd_sc_hd__and4bb_2
*I *4199:A1 I *D sky130_fd_sc_hd__o211a_2
*I *4200:C I *D sky130_fd_sc_hd__and4b_2
*I *4282:A1 I *D sky130_fd_sc_hd__o211a_2
*I *4213:B I *D sky130_fd_sc_hd__and4b_2
*I *4211:C I *D sky130_fd_sc_hd__and4b_2
*I *4212:A1 I *D sky130_fd_sc_hd__o211a_2
*I *4209:B_N I *D sky130_fd_sc_hd__and4bb_2
*I *4134:B I *D sky130_fd_sc_hd__nor3b_4
*I *4283:C I *D sky130_fd_sc_hd__and4b_2
*I *4756:X O *D sky130_fd_sc_hd__clkdlybuf4s25_1
*CAP
1 *4280:B_N 4.05208e-05
2 *4199:A1 4.94819e-05
3 *4200:C 9.69365e-05
4 *4282:A1 0.000132702
5 *4213:B 0
6 *4211:C 0.000515465
7 *4212:A1 5.91131e-07
8 *4209:B_N 2.35997e-05
9 *4134:B 0.000330219
10 *4283:C 0
11 *4756:X 5.58786e-05
12 *1007:123 0.000771885
13 *1007:53 0.000746009
14 *1007:45 0.000414071
15 *1007:41 0.000585835
16 *1007:39 0.000575699
17 *1007:22 0.00102069
18 *1007:20 0.00069366
19 *1007:16 0.00135762
20 *1007:6 0.000761668
21 *4134:B *4134:A 0.000109953
22 *4134:B *4134:C_N 0.000158543
23 *4134:B *4210:A1 0.000179015
24 *4134:B *1014:26 2.32724e-05
25 *4199:A1 *4128:C 1.12643e-05
26 *4199:A1 *1043:59 0.000109388
27 *4200:C *4200:A_N 2.75145e-05
28 *4200:C *1014:102 3.83194e-05
29 *4209:B_N *4209:A_N 4.80285e-05
30 *4209:B_N *4969:A 4.82919e-05
31 *4211:C *4211:A_N 6.23541e-06
32 *4211:C *4211:B 8.65961e-05
33 *4212:A1 *1014:20 1.72958e-07
34 *4280:B_N *4280:D 5.99215e-05
35 *4282:A1 *1014:102 6.54596e-05
36 *4282:A1 *1022:26 7.24402e-05
37 *1007:16 *4280:A_N 4.99619e-05
38 *1007:16 *4280:D 2.51659e-05
39 *1007:16 *4770:A 4.66108e-05
40 *1007:16 *1010:84 0.000147591
41 *1007:16 *1022:24 0
42 *1007:39 *4283:A_N 0.000139238
43 *1007:39 *1014:14 0.000449001
44 *1007:39 *1014:18 2.32597e-05
45 *1007:39 *1022:34 0
46 *1007:39 *1028:77 0
47 *1007:41 *4211:B 8.23457e-05
48 *1007:41 *1014:18 1.61831e-05
49 *1007:41 *1014:20 2.14655e-05
50 *1007:45 *4212:A2 3.2641e-06
51 *1007:45 *1014:20 3.03048e-05
52 *1007:53 *4212:A2 0.000111582
53 *1007:53 *4212:B1 2.84864e-05
54 *1007:53 *4212:C1 9.30787e-05
55 *1007:53 *4969:A 0.000317494
56 *1007:53 *1014:20 8.52883e-05
57 *1007:53 *1014:26 0.000186489
58 *1007:123 *4517:RESET_B 4.19797e-05
59 *1007:123 *5051:A 8.17924e-05
60 *1007:123 *1014:102 5.83121e-06
61 *1007:123 *1043:59 4.65643e-05
62 *4043:S *1007:39 0.000235568
63 *4107:A0 *1007:41 8.65961e-05
64 *4107:A0 *1007:45 8.52845e-05
65 *4107:A0 *1007:53 1.05984e-05
66 *4115:A0 *1007:39 4.08514e-05
67 *4115:A1 *1007:39 0.000461941
68 *4115:A1 *1007:41 0.00010978
69 *4115:S *1007:39 4.66108e-05
70 *4199:A2 *4199:A1 0.000111054
71 *4203:C1 *1007:123 8.49205e-05
72 *4210:A2 *4134:B 0.000133893
73 *4210:B1 *4134:B 0.000137571
74 *4214:A2 *1007:39 4.43871e-06
75 *4280:C *4280:B_N 3.48877e-05
76 *4282:A2 *4282:A1 7.24402e-05
77 *4283:D *1007:22 8.40213e-05
78 *4284:C *4282:A1 2.66939e-05
79 *4285:A1 *1007:16 0.000134306
80 *4285:A1 *1007:20 5.83121e-06
81 *4285:A2 *4282:A1 9.3062e-06
82 *4285:A2 *1007:16 4.82919e-05
83 *4285:A2 *1007:123 0.00142708
84 *4285:B1 *4282:A1 0.000132842
85 *4285:C1 *1007:20 5.83121e-06
86 *4285:C1 *1007:22 0.000183799
87 *4285:D1 *4282:A1 5.4003e-05
88 *4285:D1 *1007:123 9.41255e-05
89 *4286:B2 *1007:6 7.57202e-05
90 *4286:B2 *1007:16 0.000367561
91 *4286:B2 *1007:20 2.45351e-05
92 *4501:CLK *1007:123 0.000210839
93 *4543:CLK *1007:39 8.53113e-06
94 *4589:CLK *4211:C 0
95 *4589:D *4211:C 0
96 *4689:CLK *1007:123 0.000132842
97 *4957:A *4211:C 0.000239792
98 *276:23 *4199:A1 7.25921e-06
99 *282:66 *1007:123 8.53113e-06
100 *623:45 *4209:B_N 2.05056e-05
101 *909:12 *4211:C 9.58502e-05
102 *994:29 *1007:39 0
*RES
1 *4756:X *1007:6 2.395 
2 *1007:6 *1007:16 15.34 
3 *1007:16 *1007:20 1.155 
4 *1007:20 *1007:22 5.97 
5 *1007:22 *4283:C 1.6 
6 *1007:22 *1007:39 17.23 
7 *1007:39 *1007:41 1.83 
8 *1007:41 *1007:45 0.9375 
9 *1007:45 *1007:53 11.4725 
10 *1007:53 *4134:B 11.565 
11 *1007:53 *4209:B_N 4.395 
12 *1007:45 *4212:A1 1.70875 
13 *1007:41 *4211:C 14.045 
14 *1007:39 *4213:B 1.6 
15 *1007:20 *4282:A1 9.1775 
16 *1007:16 *1007:123 21.82 
17 *1007:123 *4200:C 2.74 
18 *1007:123 *4199:A1 7.08875 
19 *1007:6 *4280:B_N 6.725 
*END

*D_NET *1008 0.0122919
*CONN
*I *4201:B I *D sky130_fd_sc_hd__and4b_2
*I *4330:B I *D sky130_fd_sc_hd__and4b_2
*I *4310:C I *D sky130_fd_sc_hd__and4b_2
*I *4269:B I *D sky130_fd_sc_hd__and4b_2
*I *4270:C I *D sky130_fd_sc_hd__nor4b_2
*I *4314:A1 I *D sky130_fd_sc_hd__o211a_2
*I *4313:C I *D sky130_fd_sc_hd__and4bb_2
*I *4312:B_N I *D sky130_fd_sc_hd__and4bb_2
*I *4271:A1 I *D sky130_fd_sc_hd__o211a_2
*I *4128:B I *D sky130_fd_sc_hd__and3b_2
*I *4757:X O *D sky130_fd_sc_hd__clkdlybuf4s25_1
*CAP
1 *4201:B 0.000113359
2 *4330:B 0.000442812
3 *4310:C 6.77484e-05
4 *4269:B 2.43465e-05
5 *4270:C 2.36161e-05
6 *4314:A1 0
7 *4313:C 0.000216719
8 *4312:B_N 2.58236e-05
9 *4271:A1 0.000131392
10 *4128:B 0.000158261
11 *4757:X 0
12 *1008:64 0.000333057
13 *1008:51 0.000304272
14 *1008:47 0.000338391
15 *1008:35 0.000465008
16 *1008:31 0.000502908
17 *1008:27 0.00124549
18 *1008:19 0.00165507
19 *1008:17 0.000977118
20 *1008:4 0.000694307
21 *4201:B *4330:A_N 9.4087e-05
22 *4269:B *4269:C 1.91597e-05
23 *4271:A1 *4271:A2 2.66073e-05
24 *4271:A1 *4271:C1 4.73641e-05
25 *4271:A1 *1015:71 3.60024e-06
26 *4310:C *4310:B 9.12494e-06
27 *4312:B_N *4312:D 4.77719e-05
28 *4313:C *4313:A_N 0
29 *4313:C *4313:B_N 0
30 *4330:B *4330:D 0.000184978
31 *4330:B *4544:RESET_B 1.88554e-05
32 *1008:17 *4128:C 0.000114492
33 *1008:17 *1043:59 0
34 *1008:19 *1043:59 0
35 *1008:27 *1015:40 0.000192929
36 *1008:27 *1023:71 0.000159179
37 *1008:27 *1043:59 0
38 *1008:31 *4940:A 2.50325e-05
39 *1008:35 *4269:C 1.08758e-05
40 *1008:35 *4269:D 0.000122821
41 *1008:35 *4270:D_N 0.000157401
42 *1008:35 *1015:59 0.000378347
43 *1008:47 *4270:B 0.000129376
44 *1008:47 *4271:A2 0
45 *1008:47 *4314:A2 6.93523e-06
46 *1008:47 *1015:59 8.35157e-05
47 *1008:47 *1023:77 0.000192231
48 *1008:51 *4314:A2 0.000114619
49 *4006:S *4330:B 3.71061e-05
50 *4272:B1 *1008:35 2.78246e-05
51 *4272:C1 *1008:35 4.12775e-05
52 *4315:B1 *4313:C 0
53 *4315:D1 *4313:C 9.5353e-05
54 *4315:D1 *1008:64 6.04287e-05
55 *4536:CLK *1008:27 0
56 *4541:D *1008:19 0.00011852
57 *4544:D *4330:B 6.97202e-05
58 *4600:D *4313:C 0
59 *4693:A *1008:27 0.000400525
60 *4746:A *1008:27 4.77769e-05
61 *276:23 *4128:B 0.000236355
62 *276:23 *1008:17 0.000653456
63 *684:6 *4330:B 7.85767e-05
64 *890:10 *1008:31 0.000109489
65 *958:74 *4330:B 4.71087e-05
66 *958:74 *1008:19 0.000302255
67 *958:74 *1008:27 2.48249e-05
68 *994:69 *1008:27 8.23457e-05
69 *1006:22 *4330:B 0
70 *1006:33 *1008:19 0
71 *1006:48 *1008:17 0
72 *1006:48 *1008:19 0
*RES
1 *4757:X *1008:4 1.6 
2 *1008:4 *4128:B 3.775 
3 *1008:4 *1008:17 10.115 
4 *1008:17 *1008:19 7.5 
5 *1008:19 *1008:27 19.45 
6 *1008:27 *1008:31 6.44 
7 *1008:31 *1008:35 5.295 
8 *1008:35 *1008:47 9.62875 
9 *1008:47 *1008:51 3.82625 
10 *1008:51 *4271:A1 6.44625 
11 *1008:51 *1008:64 1.635 
12 *1008:64 *4312:B_N 4.05 
13 *1008:64 *4313:C 7.53 
14 *1008:47 *4314:A1 1.6 
15 *1008:35 *4270:C 1.96 
16 *1008:31 *4269:B 2.05 
17 *1008:27 *4310:C 4.725 
18 *1008:19 *4330:B 15.58 
19 *1008:17 *4201:B 5.085 
*END

*D_NET *1009 0.0191599
*CONN
*I *4139:C I *D sky130_fd_sc_hd__and4bb_2
*I *4135:B_N I *D sky130_fd_sc_hd__and4bb_2
*I *4136:A1 I *D sky130_fd_sc_hd__o211a_2
*I *4175:B_N I *D sky130_fd_sc_hd__and4bb_2
*I *4334:C I *D sky130_fd_sc_hd__and4bb_2
*I *4333:A1 I *D sky130_fd_sc_hd__o211a_2
*I *4332:B_N I *D sky130_fd_sc_hd__and4bb_2
*I *4174:A1 I *D sky130_fd_sc_hd__o211a_2
*I *4176:C I *D sky130_fd_sc_hd__and4b_2
*I *4129:B I *D sky130_fd_sc_hd__and4b_2
*I *4758:X O *D sky130_fd_sc_hd__clkdlybuf4s25_1
*CAP
1 *4139:C 0
2 *4135:B_N 0
3 *4136:A1 2.78429e-05
4 *4175:B_N 0.000205686
5 *4334:C 0
6 *4333:A1 0.000188974
7 *4332:B_N 0
8 *4174:A1 0.000119392
9 *4176:C 5.53816e-05
10 *4129:B 0
11 *4758:X 0.000340515
12 *1009:98 0.000390259
13 *1009:79 0.000832707
14 *1009:60 0.000843102
15 *1009:58 0.000567218
16 *1009:45 0.0010691
17 *1009:34 0.00174172
18 *1009:24 0.00149832
19 *1009:14 0.000554595
20 *1009:6 0.000421882
21 *4136:A1 *1016:115 9.02865e-06
22 *4175:B_N *4175:A_N 0.000673331
23 *4175:B_N *4175:D 0.000709214
24 *4175:B_N *4516:SET_B 4.76365e-05
25 *4333:A1 *4334:A_N 7.60965e-05
26 *4333:A1 *1043:20 5.9276e-05
27 *1009:6 *4139:B_N 8.65905e-05
28 *1009:6 *4758:A 2.75229e-05
29 *1009:14 *4766:A 0
30 *1009:14 *1010:10 3.86607e-05
31 *1009:14 *1018:16 9.54399e-05
32 *1009:24 *4135:D 4.82919e-05
33 *1009:24 *4139:A_N 0.000165651
34 *1009:24 *4506:SET_B 9.54399e-05
35 *1009:24 *1016:115 6.82325e-05
36 *1009:24 *1024:10 0
37 *1009:24 *1048:16 0.000111285
38 *1009:34 *4129:A_N 4.82863e-05
39 *1009:34 *4129:D 4.82919e-05
40 *1009:34 *4136:C1 6.82309e-05
41 *1009:34 *4235:A_N 0
42 *1009:34 *1016:115 9.80032e-06
43 *1009:34 *1024:22 0.000808952
44 *1009:34 *1024:24 1.71013e-05
45 *1009:45 *4129:D 7.66083e-05
46 *1009:45 *1045:49 7.53115e-05
47 *1009:45 *1045:53 0.000329576
48 *1009:58 *4516:SET_B 5.41111e-05
49 *1009:58 *1045:53 0.000264562
50 *1009:79 *4552:RESET_B 0
51 *1009:79 *5052:A 0.00028431
52 *1009:79 *1016:51 2.95721e-05
53 *1009:98 *5052:A 1.88602e-05
54 *1009:98 *1016:51 1.0145e-05
55 *4015:A0 *1009:79 0.000234674
56 *4021:S *1009:58 0
57 *4021:S *1009:60 0
58 *4025:S *1009:98 0.000483645
59 *4035:S *1009:79 6.81034e-05
60 *4044:S *4333:A1 4.73729e-05
61 *4049:A1 *1009:45 0.000331814
62 *4129:C *1009:45 4.99619e-05
63 *4133:B1 *1009:45 0
64 *4135:C *1009:14 8.40213e-05
65 *4135:C *1009:24 8.65961e-05
66 *4136:A2 *4136:A1 2.51977e-05
67 *4136:A2 *1009:34 0.000213785
68 *4140:C1 *1009:24 7.23602e-05
69 *4173:A1 *1009:45 0.000464053
70 *4173:A2 *1009:45 0
71 *4173:B2 *1009:45 9.39388e-06
72 *4174:A2 *4174:A1 0.000141599
73 *4177:B1 *4174:A1 0
74 *4177:B1 *1009:58 0
75 *4177:B1 *1009:60 0
76 *4177:C1 *4175:B_N 4.82919e-05
77 *4178:B2 *1009:45 9.1303e-05
78 *4237:A1 *1009:34 0.000170494
79 *4333:A2 *4333:A1 4.73729e-05
80 *4335:D1 *4333:A1 3.84724e-05
81 *4508:D *4174:A1 0
82 *4512:D *1009:79 0.000158072
83 *4516:D *1009:79 4.99619e-05
84 *4530:CLK *1009:34 0
85 *4530:D *1009:34 0.000270633
86 *4538:D *1009:34 0
87 *4718:A *4174:A1 0
88 *267:46 *1009:45 3.9442e-05
89 *270:18 *1009:45 0.000477073
90 *270:18 *1009:58 0
91 *272:76 *4333:A1 0
92 *272:76 *1009:98 1.7635e-05
93 *273:94 *4176:C 8.64599e-05
94 *275:30 *1009:34 6.13654e-05
95 *275:30 *1009:45 0.000104883
96 *276:23 *1009:45 0
97 *612:20 *1009:98 0.000209632
98 *619:10 *4175:B_N 0.000104175
99 *619:86 *1009:79 1.08758e-05
100 *619:90 *1009:79 0.000471235
101 *619:92 *1009:79 0.000382769
102 *622:10 *1009:34 0
103 *656:10 *4174:A1 7.30547e-05
104 *656:10 *1009:60 8.5242e-05
105 *660:10 *4333:A1 0.000174421
106 *660:10 *1009:98 0
107 *672:12 *1009:58 7.04916e-05
108 *902:32 *1009:34 0
109 *985:66 *4333:A1 0.000279787
110 *995:37 *4174:A1 1.20741e-05
*RES
1 *4758:X *1009:6 5.5 
2 *1009:6 *1009:14 5.92 
3 *1009:14 *1009:24 11.545 
4 *1009:24 *1009:34 26.89 
5 *1009:34 *4129:B 1.6 
6 *1009:34 *1009:45 21.875 
7 *1009:45 *4176:C 4.395 
8 *1009:45 *1009:58 5.4 
9 *1009:58 *1009:60 1.635 
10 *1009:60 *4174:A1 6.10875 
11 *1009:60 *1009:79 18.565 
12 *1009:79 *4332:B_N 3.6 
13 *1009:79 *1009:98 4.2022 
14 *1009:98 *4333:A1 10.9663 
15 *1009:98 *4334:C 1.6 
16 *1009:58 *4175:B_N 13.05 
17 *1009:24 *4136:A1 2.24125 
18 *1009:14 *4135:B_N 1.6 
19 *1009:6 *4139:C 1.6 
*END

*D_NET *1010 0.0167441
*CONN
*I *4758:A I *D sky130_fd_sc_hd__clkdlybuf4s25_1
*I *4235:B I *D sky130_fd_sc_hd__and4b_2
*I *4234:B_N I *D sky130_fd_sc_hd__and4bb_2
*I *4232:C I *D sky130_fd_sc_hd__or4b_2
*I *4233:A1 I *D sky130_fd_sc_hd__o211a_2
*I *4756:A I *D sky130_fd_sc_hd__clkdlybuf4s25_1
*I *4284:B I *D sky130_fd_sc_hd__and4b_2
*I *4757:A I *D sky130_fd_sc_hd__clkdlybuf4s25_1
*I *4759:X O *D sky130_fd_sc_hd__clkdlybuf4s25_1
*CAP
1 *4758:A 6.00887e-05
2 *4235:B 0.000140113
3 *4234:B_N 0
4 *4232:C 0
5 *4233:A1 0.000203278
6 *4756:A 0
7 *4284:B 0
8 *4757:A 0.000458557
9 *4759:X 0.000100147
10 *1010:84 0.00206162
11 *1010:58 0.00199738
12 *1010:44 0.000597602
13 *1010:42 0.000165573
14 *1010:30 0.000267684
15 *1010:24 0.00137203
16 *1010:10 0.00129005
17 *4233:A1 *4233:B1 3.72419e-05
18 *4233:A1 *4233:C1 0.000112114
19 *4233:A1 *1017:18 0.000136463
20 *4233:A1 *1025:42 1.9668e-05
21 *4235:B *4235:A_N 9.8467e-05
22 *4235:B *4510:RESET_B 0
23 *4235:B *4688:RESET_B 0
24 *4757:A *4128:C 8.65961e-05
25 *4757:A *4199:C1 6.44073e-05
26 *4757:A *4771:A 0.000464964
27 *4757:A *1022:114 0.000113199
28 *4758:A *4766:A 0
29 *1010:10 *1018:16 8.72665e-06
30 *1010:24 *4235:A_N 0.000112349
31 *1010:24 *4766:A 0
32 *1010:24 *1016:111 2.0514e-05
33 *1010:24 *1016:115 0.000160635
34 *1010:24 *1018:16 4.47504e-06
35 *1010:30 *4235:A_N 0.000171887
36 *1010:42 *4232:B 8.73389e-06
37 *1010:42 *4688:RESET_B 0.000116165
38 *1010:42 *1018:49 9.50342e-06
39 *1010:42 *1018:66 0.00045846
40 *1010:42 *1025:14 3.43427e-05
41 *1010:42 *1025:16 1.03323e-05
42 *1010:58 *4013:A1 2.16833e-05
43 *1010:58 *1018:101 0.000136284
44 *1010:58 *1025:68 3.74576e-05
45 *1010:58 *1040:18 0.000111324
46 *1010:58 *1040:25 1.89685e-05
47 *1010:84 *4280:A_N 4.99619e-05
48 *1010:84 *4280:D 4.01535e-05
49 *1010:84 *4771:A 1.01661e-05
50 *1010:84 *1035:39 0
51 *1010:84 *1035:46 0
52 *4013:A0 *1010:30 0.000124007
53 *4013:A0 *1010:58 0.000155497
54 *4013:S *1010:58 1.61831e-05
55 *4014:S *4233:A1 0.000159097
56 *4022:S *4757:A 0.000390407
57 *4022:S *1010:84 0.000471294
58 *4052:S *4233:A1 4.08568e-05
59 *4052:S *1010:58 0.00013521
60 *4135:C *1010:10 2.75145e-05
61 *4136:A2 *1010:24 8.72697e-05
62 *4139:D *1010:24 4.18203e-05
63 *4140:A2 *1010:24 0.00020415
64 *4233:A2 *4233:A1 6.12918e-06
65 *4234:C *1010:30 0.000206452
66 *4236:A *1010:58 0
67 *4283:D *1010:84 0
68 *4285:C1 *1010:84 8.1871e-05
69 *4286:B2 *1010:84 0.00123309
70 *4688:CLK *4233:A1 9.50342e-06
71 *4688:CLK *1010:42 4.82919e-05
72 *4688:CLK *1010:58 0.000105266
73 *4808:A *1010:24 1.83847e-05
74 *4808:A *1010:30 1.19928e-05
75 *4852:A *1010:84 0
76 *4853:A *4235:B 4.43871e-06
77 *4871:A *4233:A1 1.12578e-05
78 *3:30 *1010:24 0
79 *266:34 *1010:84 5.05066e-06
80 *270:18 *1010:24 1.7635e-05
81 *270:56 *1010:42 7.60965e-05
82 *270:60 *1010:84 0
83 *273:38 *4757:A 0.000141606
84 *276:23 *4757:A 5.30673e-05
85 *624:121 *1010:58 0.000564901
86 *624:125 *1010:58 2.92496e-05
87 *634:16 *1010:58 5.20968e-05
88 *650:10 *4235:B 9.0336e-05
89 *658:8 *4233:A1 2.49418e-05
90 *902:32 *1010:24 9.82856e-06
91 *982:85 *1010:24 0
92 *982:111 *1010:58 0.000235573
93 *982:111 *1010:84 0.000178258
94 *1006:86 *4757:A 7.23602e-05
95 *1007:16 *1010:84 0.000147591
96 *1009:6 *4758:A 2.75229e-05
97 *1009:14 *1010:10 3.86607e-05
*RES
1 *4759:X *1010:10 5.3025 
2 *1010:10 *1010:24 12.0558 
3 *1010:24 *1010:30 3.585 
4 *1010:30 *1010:42 9.31 
5 *1010:42 *1010:44 2 
6 *1010:44 *1010:58 17.745 
7 *1010:58 *1010:84 28.4141 
8 *1010:84 *4757:A 18.015 
9 *1010:84 *4284:B 3.6 
10 *1010:58 *4756:A 1.6 
11 *1010:44 *4233:A1 8.69625 
12 *1010:42 *4232:C 1.6 
13 *1010:30 *4234:B_N 1.6 
14 *1010:24 *4235:B 8.765 
15 *1010:10 *4758:A 4.7325 
*END

*D_NET *1011 0.0177103
*CONN
*I *3971:C I *D sky130_fd_sc_hd__and3_2
*I *4162:B_N I *D sky130_fd_sc_hd__and4bb_2
*I *4163:A1 I *D sky130_fd_sc_hd__o211a_2
*I *4245:A1 I *D sky130_fd_sc_hd__o211a_2
*I *4242:B I *D sky130_fd_sc_hd__and4b_2
*I *4244:B_N I *D sky130_fd_sc_hd__and4bb_2
*I *4246:C I *D sky130_fd_sc_hd__and4b_2
*I *4138:C_N I *D sky130_fd_sc_hd__nor3b_2
*I *4132:C I *D sky130_fd_sc_hd__and3b_2
*I *4131:C I *D sky130_fd_sc_hd__nor3_2
*I *4760:X O *D sky130_fd_sc_hd__clkdlybuf4s25_1
*CAP
1 *3971:C 0
2 *4162:B_N 3.77257e-05
3 *4163:A1 0
4 *4245:A1 0.000545733
5 *4242:B 0.000297866
6 *4244:B_N 3.53358e-05
7 *4246:C 0.000232849
8 *4138:C_N 0.00018262
9 *4132:C 0
10 *4131:C 0.000422023
11 *4760:X 0.000144876
12 *1011:94 0.000912538
13 *1011:80 0.0012398
14 *1011:69 0.000490455
15 *1011:38 0.000578259
16 *1011:32 0.000789812
17 *1011:30 0.00104158
18 *1011:22 0.000718533
19 *1011:16 0.000851901
20 *1011:8 0.000688259
21 *4131:C *4131:A 0.000382492
22 *4131:C *4131:B 5.12969e-06
23 *4131:C *1026:55 4.34223e-05
24 *4131:C *1026:69 3.51072e-05
25 *4138:C_N *4138:B 0
26 *4138:C_N *1026:36 2.75145e-05
27 *4138:C_N *1026:42 4.66826e-05
28 *4162:B_N *4162:D 7.23602e-05
29 *4162:B_N *4164:B_N 5.20968e-05
30 *4242:B *4092:A0 0
31 *4242:B *4181:D 0.000364675
32 *4242:B *4242:C 4.99619e-05
33 *4242:B *4242:D 4.82863e-05
34 *4242:B *4243:B2 0
35 *4242:B *1026:89 8.98683e-05
36 *4244:B_N *4244:C 2.30292e-05
37 *4244:B_N *4244:D 4.82863e-05
38 *4245:A1 *4975:A 5.29505e-05
39 *4245:A1 *1092:10 5.39181e-05
40 *4246:C *4246:B 2.79137e-05
41 *4246:C *4822:A 3.58091e-05
42 *4246:C *1019:89 0.00015639
43 *1011:8 *3971:B 4.82863e-05
44 *1011:8 *1012:14 5.83497e-05
45 *1011:16 *4163:A2 0.000148977
46 *1011:16 *1019:26 1.08758e-05
47 *1011:16 *1019:32 3.83194e-05
48 *1011:16 *1020:20 0.000139265
49 *1011:16 *1026:22 0.000330434
50 *1011:22 *4163:A2 0.000341413
51 *1011:22 *1130:27 1.77833e-05
52 *1011:30 *4920:A 0.000201508
53 *1011:30 *1020:20 0
54 *1011:30 *1130:27 0.000158916
55 *1011:30 *1130:29 0.000953086
56 *1011:32 *1019:89 0
57 *1011:38 *4131:A 0.000114951
58 *1011:38 *1019:60 0
59 *1011:69 *1019:89 0.000120655
60 *1011:80 *4160:A 3.60648e-06
61 *1011:94 *4244:D 8.49205e-05
62 *1011:94 *4247:A1 0.000156658
63 *1011:94 *1019:114 9.47267e-06
64 *1011:94 *1100:20 0.000119866
65 *4100:A1 *4245:A1 6.37579e-05
66 *4108:A0 *1011:94 1.08758e-05
67 *4108:A1 *4245:A1 0.000303969
68 *4108:A1 *1011:80 9.50342e-06
69 *4116:A1 *1011:30 1.83847e-05
70 *4116:A1 *1011:69 7.06865e-05
71 *4243:B1 *4242:B 0
72 *4243:C1 *4242:B 0
73 *4247:A2 *1011:80 0.000134246
74 *4247:A2 *1011:94 0.000121811
75 *4247:B1 *1011:94 0.000175425
76 *4247:C1 *4245:A1 2.75145e-05
77 *4481:A *1011:8 4.66108e-05
78 *4598:RESET_B *4245:A1 9.71067e-05
79 *4598:RESET_B *1011:32 0.000251329
80 *4598:RESET_B *1011:69 7.07722e-05
81 *4598:RESET_B *1011:80 0.000289903
82 *4676:D *1011:8 0.0001249
83 *256:6 *1011:8 4.66108e-05
84 *256:44 *1011:8 0.000273872
85 *265:6 *4245:A1 0.000563836
86 *286:10 *1011:32 0.00011398
87 *286:10 *1011:38 4.13171e-05
88 *286:21 *1011:32 6.7286e-05
89 *613:22 *1011:8 2.04648e-05
90 *705:38 *1011:32 0.000205921
91 *705:38 *1011:38 7.44453e-05
92 *706:73 *4162:B_N 0
93 *868:8 *1011:30 3.1835e-05
94 *987:12 *1011:32 0.000117825
95 *1003:46 *1011:94 3.63661e-05
96 *1003:50 *1011:94 4.21579e-05
97 *1004:60 *1011:16 0.000374239
*RES
1 *4760:X *1011:8 6.025 
2 *1011:8 *1011:16 13.72 
3 *1011:16 *1011:22 4.0575 
4 *1011:22 *1011:30 13.8275 
5 *1011:30 *1011:32 10.05 
6 *1011:32 *1011:38 4.80875 
7 *1011:38 *4131:C 7.46125 
8 *1011:38 *4132:C 1.6 
9 *1011:32 *4138:C_N 6.48 
10 *1011:30 *1011:69 4.775 
11 *1011:69 *4246:C 4.465 
12 *1011:69 *1011:80 5.42 
13 *1011:80 *1011:94 11.585 
14 *1011:94 *4244:B_N 2.395 
15 *1011:94 *4242:B 12.275 
16 *1011:80 *4245:A1 16.5075 
17 *1011:22 *4163:A1 1.6 
18 *1011:16 *4162:B_N 6.725 
19 *1011:8 *3971:C 1.6 
*END

*D_NET *1012 0.014391
*CONN
*I *4760:A I *D sky130_fd_sc_hd__clkdlybuf4s25_1
*I *4480:B1 I *D sky130_fd_sc_hd__a21oi_2
*I *4164:B_N I *D sky130_fd_sc_hd__and4bb_2
*I *4165:B I *D sky130_fd_sc_hd__and4b_2
*I *4181:B I *D sky130_fd_sc_hd__and4b_2
*I *4180:C I *D sky130_fd_sc_hd__and4b_2
*I *4761:X O *D sky130_fd_sc_hd__clkdlybuf4s25_1
*CAP
1 *4760:A 2.08101e-05
2 *4480:B1 0
3 *4164:B_N 0.000436448
4 *4165:B 0
5 *4181:B 0
6 *4180:C 0.000111426
7 *4761:X 0.000153452
8 *1012:48 0.000706746
9 *1012:38 0.00288741
10 *1012:22 0.00267332
11 *1012:20 0.00124265
12 *1012:14 0.000709905
13 *1012:6 0.000459206
14 *4164:B_N *4162:D 1.44259e-05
15 *4164:B_N *4163:A2 0.000171117
16 *4164:B_N *4165:C 2.86623e-05
17 *4164:B_N *4967:A 8.34348e-05
18 *4180:C *4180:B 0.000105592
19 *4180:C *4180:D 0.000140403
20 *4180:C *4181:C 2.01565e-05
21 *4180:C *4181:D 8.69583e-05
22 *1012:14 *1026:22 0
23 *1012:20 *1029:45 0.000253633
24 *1012:22 *4165:C 0.00015482
25 *1012:22 *4165:D 0.000241483
26 *1012:22 *1029:45 2.20732e-05
27 *1012:38 *4165:D 4.82919e-05
28 *1012:38 *1113:10 0
29 *1012:48 *4180:B 4.30188e-05
30 *1012:48 *4181:C 0.000233557
31 *4105:S *1012:38 6.8665e-05
32 *4121:S *1012:38 0
33 *4122:A0 *1012:48 0
34 *4122:A1 *1012:48 1.16578e-05
35 *4162:B_N *4164:B_N 5.20968e-05
36 *4166:C *4164:B_N 0
37 *4168:A3 *1012:38 0
38 *4185:C1 *4180:C 0.000203178
39 *4292:B1 *1012:38 7.07664e-05
40 *4321:A *1012:38 2.69079e-05
41 *4337:A *1012:38 0
42 *4339:A1_N *1012:38 0
43 *4386:A2 *1012:38 0.000408211
44 *4387:A *1012:38 4.66108e-05
45 *4387:B *1012:38 1.64141e-05
46 *4392:A *1012:20 5.83121e-06
47 *4481:A *1012:6 0.000180373
48 *4481:A *1012:14 0.000177127
49 *4481:B *1012:14 9.30787e-05
50 *4603:D *1012:38 0.000148194
51 *4676:D *1012:14 7.00889e-06
52 *4706:A *1012:14 0
53 *4728:A *1012:38 0
54 *315:10 *1012:38 0
55 *333:10 *1012:48 0.000868464
56 *431:8 *1012:38 5.72742e-05
57 *432:10 *1012:38 0
58 *436:27 *1012:38 4.22956e-05
59 *451:8 *1012:38 0.000307256
60 *613:22 *1012:14 0.00015896
61 *705:38 *1012:48 0
62 *706:73 *4164:B_N 0
63 *706:73 *1012:38 0
64 *1005:74 *1012:48 0.000333327
65 *1011:8 *1012:14 5.83497e-05
*RES
1 *4761:X *1012:6 4.465 
2 *1012:6 *1012:14 9.88 
3 *1012:14 *1012:20 7.035 
4 *1012:20 *1012:22 5.28 
5 *1012:22 *1012:38 42.295 
6 *1012:38 *1012:48 18.49 
7 *1012:48 *4180:C 5.98 
8 *1012:48 *4181:B 1.6 
9 *1012:22 *4165:B 1.6 
10 *1012:20 *4164:B_N 14.12 
11 *1012:14 *4480:B1 1.6 
12 *1012:6 *4760:A 1.96 
*END

*D_NET *1013 0.0207662
*CONN
*I *4145:B I *D sky130_fd_sc_hd__and4b_2
*I *4137:B I *D sky130_fd_sc_hd__nor3b_4
*I *4156:B_N I *D sky130_fd_sc_hd__and4bb_2
*I *4154:B_N I *D sky130_fd_sc_hd__and4bb_2
*I *4155:A1 I *D sky130_fd_sc_hd__o211a_2
*I *3972:A I *D sky130_fd_sc_hd__nand2_2
*I *4359:A I *D sky130_fd_sc_hd__or2_2
*I *4183:A1 I *D sky130_fd_sc_hd__o211a_2
*I *4143:A1 I *D sky130_fd_sc_hd__o211a_2
*I *4144:B_N I *D sky130_fd_sc_hd__and4bb_2
*I *4762:X O *D sky130_fd_sc_hd__clkdlybuf4s25_1
*CAP
1 *4145:B 0.000357245
2 *4137:B 0
3 *4156:B_N 0
4 *4154:B_N 5.08996e-05
5 *4155:A1 0.000222159
6 *3972:A 0
7 *4359:A 0
8 *4183:A1 0.00163253
9 *4143:A1 5.27987e-05
10 *4144:B_N 6.4506e-05
11 *4762:X 0.000176788
12 *1013:107 0.000456083
13 *1013:101 0.00101354
14 *1013:91 0.00114194
15 *1013:44 0.00187607
16 *1013:42 0.00054288
17 *1013:40 0.00126159
18 *1013:19 0.000776944
19 *1013:17 0.000467959
20 *1013:6 0.00027868
21 *4143:A1 *4143:A2 9.50342e-06
22 *4143:A1 *1021:52 1.20741e-05
23 *4144:B_N *4144:C 4.66108e-05
24 *4144:B_N *4144:D 4.99619e-05
25 *4145:B *4145:C 3.00381e-05
26 *4145:B *4145:D 0.000278117
27 *4145:B *1029:65 2.59322e-05
28 *4154:B_N *4154:A_N 8.82642e-05
29 *4154:B_N *4155:C1 0.000223804
30 *4155:A1 *4155:C1 8.49205e-05
31 *4155:A1 *4507:SET_B 0.000117005
32 *4183:A1 *4183:B1 2.49909e-05
33 *4183:A1 *4184:A1 0.000499986
34 *4183:A1 *4185:A1 0.000267011
35 *4183:A1 *4359:B 0.00036474
36 *4183:A1 *4978:A 0.000191343
37 *4183:A1 *1066:10 0.000118877
38 *4183:A1 *1087:8 0.000160658
39 *4183:A1 *1095:10 1.79098e-05
40 *1013:6 *4144:C 8.65961e-05
41 *1013:6 *1021:42 0.000358357
42 *1013:17 *4147:A1 8.59365e-05
43 *1013:17 *1021:46 0
44 *1013:19 *4144:D 0
45 *1013:19 *4147:A1 9.50342e-06
46 *1013:19 *1029:67 0
47 *1013:40 *1029:65 3.40841e-05
48 *1013:40 *1029:90 0.000367241
49 *1013:44 *4359:B 3.09164e-05
50 *1013:91 *1021:64 0.00023911
51 *1013:101 *4137:A 8.76986e-05
52 *1013:101 *1029:105 0.000288203
53 *1013:107 *4155:C1 1.52184e-05
54 *1013:107 *1021:70 9.50342e-06
55 *1013:107 *1021:79 0.000347271
56 *4030:A0 *4155:A1 4.66108e-05
57 *4030:A1 *4155:A1 0.00023468
58 *4030:S *4155:A1 2.8185e-05
59 *4098:A1 *4183:A1 7.03276e-05
60 *4147:A2 *1013:40 1.59999e-05
61 *4147:B1 *4143:A1 9.5433e-05
62 *4147:B1 *1013:19 4.9968e-05
63 *4147:C1 *1013:6 4.82919e-05
64 *4147:C1 *1013:17 3.86607e-05
65 *4147:C1 *1013:19 3.23391e-05
66 *4156:C *1013:101 4.92062e-05
67 *4157:D1 *1013:101 3.23663e-05
68 *4182:B *4183:A1 0.000284931
69 *4362:A2 *4183:A1 0.000106892
70 *4362:A2 *1013:44 0.000189234
71 *4363:B1 *4183:A1 0.00101698
72 *4365:B1 *1013:44 5.92269e-05
73 *4497:RESET_B *4183:A1 0
74 *4523:D *4155:A1 4.82863e-05
75 *4570:CLK *1013:42 5.72742e-05
76 *4570:CLK *1013:91 9.27326e-05
77 *4570:D *1013:40 3.07539e-05
78 *4570:D *1013:42 0.000100848
79 *4572:RESET_B *4183:A1 4.24575e-05
80 *4578:D *1013:42 0.000110483
81 *4578:RESET_B *1013:42 0.000338132
82 *4586:D *1013:44 0
83 *4593:D *4183:A1 1.94636e-05
84 *4593:RESET_B *4183:A1 3.36417e-06
85 *4609:RESET_B *4183:A1 0.000224333
86 *4617:D *4183:A1 1.91597e-05
87 *4704:A *4155:A1 0.000224767
88 *4791:A *1013:40 4.99619e-05
89 *4910:A *4154:B_N 4.82863e-05
90 *3:30 *1013:40 0
91 *3:30 *1013:42 0
92 *285:32 *1013:42 0
93 *285:38 *1013:42 0
94 *289:18 *1013:42 0.000297771
95 *289:18 *1013:44 0.000138264
96 *429:6 *4145:B 0.000158965
97 *429:22 *1013:6 0.000617721
98 *700:10 *1013:42 0.000227734
99 *700:10 *1013:44 5.56629e-05
100 *947:10 *1013:107 0
101 *984:27 *4154:B_N 1.19928e-05
102 *984:27 *4155:A1 2.8185e-05
103 *984:31 *4155:A1 0.000260432
104 *985:16 *1013:44 0
105 *987:24 *1013:40 2.40242e-05
106 *987:49 *4143:A1 0.000105711
107 *987:49 *1013:19 4.38051e-05
108 *998:63 *4183:A1 4.22806e-05
*RES
1 *4762:X *1013:6 8.605 
2 *1013:6 *4144:B_N 2.74 
3 *1013:6 *1013:17 3.125 
4 *1013:17 *1013:19 1.38 
5 *1013:19 *4143:A1 5.34375 
6 *1013:19 *1013:40 12.6325 
7 *1013:40 *1013:42 9.0675 
8 *1013:42 *1013:44 5.97 
9 *1013:44 *4183:A1 42.6325 
10 *1013:44 *4359:A 3.6 
11 *1013:42 *3972:A 3.6 
12 *1013:40 *1013:91 7.22 
13 *1013:91 *1013:101 15.73 
14 *1013:101 *1013:107 8.185 
15 *1013:107 *4155:A1 12.6088 
16 *1013:107 *4154:B_N 3.775 
17 *1013:101 *4156:B_N 1.6 
18 *1013:91 *4137:B 1.6 
19 *1013:17 *4145:B 8.535 
*END

*D_NET *1014 0.0159705
*CONN
*I *4280:D I *D sky130_fd_sc_hd__and4bb_2
*I *4282:B1 I *D sky130_fd_sc_hd__o211a_2
*I *4199:B1 I *D sky130_fd_sc_hd__o211a_2
*I *4200:A_N I *D sky130_fd_sc_hd__and4b_2
*I *4283:A_N I *D sky130_fd_sc_hd__and4b_2
*I *4213:D I *D sky130_fd_sc_hd__and4b_2
*I *4211:A_N I *D sky130_fd_sc_hd__and4b_2
*I *4212:B1 I *D sky130_fd_sc_hd__o211a_2
*I *4134:A I *D sky130_fd_sc_hd__nor3b_4
*I *4209:D I *D sky130_fd_sc_hd__and4bb_2
*I *4763:X O *D sky130_fd_sc_hd__clkdlybuf4s25_1
*CAP
1 *4280:D 0.000174522
2 *4282:B1 5.51265e-05
3 *4199:B1 8.11576e-05
4 *4200:A_N 0.000122629
5 *4283:A_N 0.000101368
6 *4213:D 2.08101e-05
7 *4211:A_N 0.000164315
8 *4212:B1 5.54266e-05
9 *4134:A 0.000264079
10 *4209:D 4.72521e-05
11 *4763:X 0
12 *1014:102 0.000830305
13 *1014:26 0.000753305
14 *1014:20 0.000690606
15 *1014:18 0.000488376
16 *1014:14 0.000561328
17 *1014:12 0.00109245
18 *1014:8 0.00136996
19 *1014:6 0.000837992
20 *1014:4 0.000795361
21 *4134:A *4134:C_N 4.66108e-05
22 *4134:A *4210:A1 0.000180689
23 *4134:A *1067:16 0
24 *4199:B1 *4199:C1 7.14564e-05
25 *4209:D *1067:16 0
26 *4211:A_N *4123:A1 1.73877e-05
27 *4211:A_N *4211:B 0.000506547
28 *4211:A_N *1022:83 5.23362e-05
29 *4212:B1 *4212:C1 2.42236e-05
30 *4280:D *1022:24 0
31 *4280:D *1025:68 4.82863e-05
32 *4283:A_N *1022:36 2.75229e-05
33 *4283:A_N *1028:77 0
34 *1014:6 *1022:24 0.000202607
35 *1014:6 *1022:26 5.05521e-05
36 *1014:6 *1025:68 0.000467074
37 *1014:8 *1022:26 8.57406e-05
38 *1014:12 *1022:26 6.1357e-05
39 *1014:12 *1022:34 0.000289758
40 *1014:18 *4211:B 2.75229e-05
41 *1014:20 *4211:B 2.49909e-05
42 *1014:26 *4212:A2 3.83194e-05
43 *1014:26 *4212:C1 7.23533e-05
44 *1014:26 *4969:A 0.000317494
45 *1014:26 *1067:16 0
46 *1014:102 *4517:RESET_B 0.000265924
47 *1014:102 *5051:A 0.000198286
48 *1014:102 *1022:114 0.000144179
49 *1014:102 *1043:59 0.000201141
50 *4043:S *4283:A_N 4.99619e-05
51 *4115:S *1014:14 4.82863e-05
52 *4134:B *4134:A 0.000109953
53 *4134:B *1014:26 2.32724e-05
54 *4199:A2 *4199:B1 0.000133447
55 *4199:A2 *1014:102 0.000139933
56 *4200:C *4200:A_N 2.75145e-05
57 *4200:C *1014:102 3.83194e-05
58 *4200:D *1014:102 0.00033755
59 *4210:B1 *4134:A 0.00035381
60 *4211:C *4211:A_N 6.23541e-06
61 *4212:A1 *1014:20 1.72958e-07
62 *4214:D1 *1014:14 4.82919e-05
63 *4280:B_N *4280:D 5.99215e-05
64 *4282:A1 *1014:102 6.54596e-05
65 *4282:A2 *1014:12 9.46111e-06
66 *4284:C *1014:102 0.000460168
67 *4285:A1 *4282:B1 0
68 *4285:B1 *4282:B1 1.0183e-05
69 *4285:B1 *1014:8 8.40213e-05
70 *4285:D1 *1014:102 0.000293726
71 *4872:A *1014:102 0.000230869
72 *909:12 *4211:A_N 0.00046038
73 *993:43 *1014:26 0
74 *1007:16 *4280:D 2.51659e-05
75 *1007:39 *4283:A_N 0.000139238
76 *1007:39 *1014:14 0.000449001
77 *1007:39 *1014:18 2.32597e-05
78 *1007:41 *1014:18 1.61831e-05
79 *1007:41 *1014:20 2.14655e-05
80 *1007:45 *1014:20 3.03048e-05
81 *1007:53 *4212:B1 2.84864e-05
82 *1007:53 *1014:20 8.52883e-05
83 *1007:53 *1014:26 0.000186489
84 *1007:123 *1014:102 5.83121e-06
85 *1010:84 *4280:D 4.01535e-05
*RES
1 *4763:X *1014:4 1.6 
2 *1014:4 *1014:6 8.385 
3 *1014:6 *1014:8 2.175 
4 *1014:8 *1014:12 7.365 
5 *1014:12 *1014:14 7.695 
6 *1014:14 *1014:18 1.845 
7 *1014:18 *1014:20 2.52 
8 *1014:20 *1014:26 11.0225 
9 *1014:26 *4209:D 4.5375 
10 *1014:26 *4134:A 10.1475 
11 *1014:20 *4212:B1 6.47 
12 *1014:18 *4211:A_N 12.08 
13 *1014:14 *4213:D 1.96 
14 *1014:12 *4283:A_N 7.685 
15 *1014:8 *1014:102 23.305 
16 *1014:102 *4200:A_N 3.43 
17 *1014:102 *4199:B1 7.595 
18 *1014:6 *4282:B1 6.47 
19 *1014:4 *4280:D 8.495 
*END

*D_NET *1015 0.0149129
*CONN
*I *4330:D I *D sky130_fd_sc_hd__and4b_2
*I *4310:A_N I *D sky130_fd_sc_hd__and4b_2
*I *4314:B1 I *D sky130_fd_sc_hd__o211a_2
*I *4270:A I *D sky130_fd_sc_hd__nor4b_2
*I *4271:B1 I *D sky130_fd_sc_hd__o211a_2
*I *4313:A_N I *D sky130_fd_sc_hd__and4bb_2
*I *4312:A_N I *D sky130_fd_sc_hd__and4bb_2
*I *4269:D I *D sky130_fd_sc_hd__and4b_2
*I *4128:C I *D sky130_fd_sc_hd__and3b_2
*I *4201:D I *D sky130_fd_sc_hd__and4b_2
*I *4764:X O *D sky130_fd_sc_hd__clkdlybuf4s25_1
*CAP
1 *4330:D 0.000485301
2 *4310:A_N 7.80804e-05
3 *4314:B1 0.000265514
4 *4270:A 1.94509e-05
5 *4271:B1 0
6 *4313:A_N 0.000277473
7 *4312:A_N 2.5811e-05
8 *4269:D 6.9807e-05
9 *4128:C 0.000313605
10 *4201:D 7.77117e-06
11 *4764:X 0
12 *1015:113 0.000402303
13 *1015:79 0.000629769
14 *1015:71 0.000614999
15 *1015:59 0.000703709
16 *1015:42 0.000642123
17 *1015:40 0.00138665
18 *1015:32 0.00198847
19 *1015:6 0.000343379
20 *1015:4 0.000373807
21 *4128:C *1043:59 5.43298e-05
22 *4201:D *4330:A_N 4.99619e-05
23 *4269:D *4267:A 2.68037e-05
24 *4310:A_N *4310:B 9.12857e-06
25 *4310:A_N *4310:D 5.31158e-06
26 *4312:A_N *4312:C 1.79098e-05
27 *4313:A_N *4314:A2 0
28 *4313:A_N *1086:21 0
29 *4314:B1 *4314:A2 3.01947e-05
30 *4314:B1 *1023:71 0.000378333
31 *4314:B1 *1023:75 4.77807e-05
32 *1015:6 *4330:A_N 0.000112349
33 *1015:32 *4330:A_N 7.99304e-05
34 *1015:42 *4267:A 6.98212e-05
35 *1015:71 *4077:A0 0.000158547
36 *1015:71 *4271:A2 1.73406e-05
37 *1015:79 *4271:A2 3.13354e-05
38 *1015:79 *4271:C1 5.39775e-05
39 *1015:79 *4314:A2 0
40 *1015:79 *1031:8 4.05997e-05
41 *1015:79 *1070:12 5.62661e-05
42 *4006:A0 *1015:40 1.74776e-05
43 *4050:S *1015:32 8.47455e-05
44 *4077:A1 *1015:71 9.22294e-06
45 *4199:A1 *4128:C 1.12643e-05
46 *4203:A2 *4128:C 4.91763e-05
47 *4203:B1 *4128:C 4.82863e-05
48 *4204:A3 *1015:32 0.000159957
49 *4271:A1 *1015:71 3.60024e-06
50 *4272:B1 *4269:D 2.01737e-05
51 *4313:C *4313:A_N 0
52 *4315:B1 *4313:A_N 0.000155875
53 *4315:B1 *1015:79 8.53113e-06
54 *4315:C1 *4313:A_N 0
55 *4330:B *4330:D 0.000184978
56 *4330:C *4330:D 2.49909e-05
57 *4331:B2 *1015:40 4.28112e-06
58 *4544:D *1015:32 2.37321e-05
59 *4544:D *1015:40 2.97004e-06
60 *4549:CLK *1015:32 0
61 *4693:A *1015:40 0.00112224
62 *4757:A *4128:C 8.65961e-05
63 *276:23 *4128:C 0.000266128
64 *282:49 *4128:C 0.000759281
65 *614:10 *1015:79 7.35866e-05
66 *614:12 *1015:71 3.97053e-05
67 *614:12 *1015:79 0.00013596
68 *621:43 *1015:32 0
69 *684:6 *4330:D 0.000111901
70 *958:74 *1015:32 0
71 *958:74 *1015:40 0
72 *987:118 *4201:D 4.82863e-05
73 *987:118 *1015:6 0.000122331
74 *987:118 *1015:32 0.00016063
75 *990:55 *1015:71 3.11548e-05
76 *1006:22 *1015:32 0
77 *1006:22 *1015:40 0
78 *1006:33 *1015:32 0.000248261
79 *1006:48 *1015:32 0.000137571
80 *1008:17 *4128:C 0.000114492
81 *1008:27 *1015:40 0.000192929
82 *1008:35 *4269:D 0.000122821
83 *1008:35 *1015:59 0.000378347
84 *1008:47 *1015:59 8.35157e-05
*RES
1 *4764:X *1015:4 1.6 
2 *1015:4 *1015:6 1.14 
3 *1015:6 *4201:D 2.05 
4 *1015:6 *4128:C 15.7288 
5 *1015:4 *1015:32 11.24 
6 *1015:32 *1015:40 24.175 
7 *1015:40 *1015:42 3.165 
8 *1015:42 *4269:D 5.355 
9 *1015:42 *1015:59 7.295 
10 *1015:59 *1015:71 8.71 
11 *1015:71 *1015:79 8.885 
12 *1015:79 *4312:A_N 4.05 
13 *1015:79 *4313:A_N 8.325 
14 *1015:71 *4271:B1 1.6 
15 *1015:59 *4270:A 1.96 
16 *1015:40 *1015:113 0.87 
17 *1015:113 *4314:B1 8.205 
18 *1015:113 *4310:A_N 4.98 
19 *1015:32 *4330:D 9.84 
*END

*D_NET *1016 0.0203731
*CONN
*I *4136:B1 I *D sky130_fd_sc_hd__o211a_2
*I *4139:A_N I *D sky130_fd_sc_hd__and4bb_2
*I *4135:A_N I *D sky130_fd_sc_hd__and4bb_2
*I *4129:D I *D sky130_fd_sc_hd__and4b_2
*I *4176:A_N I *D sky130_fd_sc_hd__and4b_2
*I *4175:D I *D sky130_fd_sc_hd__and4bb_2
*I *4332:D I *D sky130_fd_sc_hd__and4bb_2
*I *4334:A_N I *D sky130_fd_sc_hd__and4bb_2
*I *4333:B1 I *D sky130_fd_sc_hd__o211a_2
*I *4174:B1 I *D sky130_fd_sc_hd__o211a_2
*I *4765:X O *D sky130_fd_sc_hd__clkdlybuf4s25_1
*CAP
1 *4136:B1 0
2 *4139:A_N 0.000131581
3 *4135:A_N 0.000162205
4 *4129:D 5.92665e-05
5 *4176:A_N 9.88613e-06
6 *4175:D 0.000849754
7 *4332:D 0
8 *4334:A_N 0.00015162
9 *4333:B1 2.66562e-05
10 *4174:B1 0.000255182
11 *4765:X 0.000661771
12 *1016:115 0.000387297
13 *1016:111 0.000299287
14 *1016:51 0.000453913
15 *1016:39 0.000976159
16 *1016:29 0.00155028
17 *1016:14 0.000382646
18 *1016:12 0.000757974
19 *1016:10 0.00105283
20 *1016:8 0.00124048
21 *4135:A_N *5000:A 0.000113255
22 *4174:B1 *4174:C1 0.000430394
23 *4174:B1 *1024:26 0.000115398
24 *4174:B1 *1039:16 0.000312792
25 *4175:D *4175:A_N 4.43634e-05
26 *4175:D *4516:SET_B 7.94826e-05
27 *4175:D *1039:16 1.19928e-05
28 *4176:A_N *4176:B 4.77807e-05
29 *4334:A_N *1043:20 0.000122325
30 *1016:8 *4765:A 6.27347e-05
31 *1016:10 *1024:22 0.00111369
32 *1016:10 *1024:24 4.21314e-05
33 *1016:12 *4524:SET_B 0.000238262
34 *1016:12 *1024:24 0.00152091
35 *1016:12 *1045:106 0.000116158
36 *1016:14 *1024:24 2.85364e-05
37 *1016:14 *1024:26 0.000251425
38 *1016:39 *4528:RESET_B 0.000311288
39 *1016:39 *4784:A 0.00014305
40 *1016:39 *1039:16 0.000208339
41 *1016:39 *1043:6 8.40269e-05
42 *1016:51 *4333:C1 0.0002336
43 *1016:51 *4552:RESET_B 6.17392e-05
44 *1016:51 *5052:A 7.21709e-05
45 *1016:51 *1024:76 0.000193129
46 *1016:111 *4136:C1 0.000135903
47 *1016:111 *1024:22 0.00035012
48 *4040:A1 *4176:A_N 4.77807e-05
49 *4044:S *4333:B1 2.69153e-05
50 *4044:S *1016:51 8.23106e-05
51 *4047:A1 *1016:10 9.70786e-05
52 *4049:A0 *1016:12 6.95166e-05
53 *4129:C *1016:10 0.000164444
54 *4136:A1 *1016:115 9.02865e-06
55 *4136:A2 *1016:111 4.82919e-05
56 *4136:A2 *1016:115 3.25635e-05
57 *4140:A1 *4139:A_N 8.65961e-05
58 *4140:B1 *4139:A_N 3.30597e-05
59 *4140:C1 *4139:A_N 0.000122331
60 *4140:D1 *4139:A_N 0.000112349
61 *4140:D1 *1016:115 8.65961e-05
62 *4141:B2 *4139:A_N 9.27255e-06
63 *4175:B_N *4175:D 0.000709214
64 *4332:C *1016:39 0.000129832
65 *4333:A1 *4334:A_N 7.60965e-05
66 *4333:A2 *4333:B1 3.09774e-05
67 *4335:A2 *1016:51 8.35118e-05
68 *4335:C1 *4333:B1 4.77769e-05
69 *4335:C1 *1016:51 0.000268121
70 *4335:D1 *4334:A_N 8.86398e-05
71 *268:32 *1016:111 0.000141599
72 *268:51 *1016:111 9.42665e-05
73 *270:18 *4135:A_N 0.000101753
74 *270:18 *1016:12 0
75 *272:22 *1016:8 0.000185113
76 *272:76 *4334:A_N 0
77 *274:85 *1016:10 0
78 *274:85 *1016:12 0
79 *274:100 *1016:8 7.62032e-05
80 *612:20 *1016:39 0.000110612
81 *625:51 *4135:A_N 9.98776e-05
82 *902:32 *1016:111 2.82642e-05
83 *902:34 *1016:111 1.74516e-05
84 *902:36 *1016:10 8.48367e-05
85 *902:36 *1016:111 4.19967e-05
86 *902:40 *1016:10 8.683e-05
87 *995:37 *4174:B1 4.60584e-05
88 *995:46 *4174:B1 2.17782e-05
89 *995:46 *1016:12 2.12957e-05
90 *995:46 *1016:14 9.71535e-05
91 *995:57 *1016:12 3.05648e-05
92 *995:68 *1016:12 0.00013266
93 *995:79 *1016:12 4.92192e-05
94 *1009:24 *4139:A_N 0.000165651
95 *1009:24 *1016:115 6.82325e-05
96 *1009:34 *4129:D 4.82919e-05
97 *1009:34 *1016:115 9.80032e-06
98 *1009:45 *4129:D 7.66083e-05
99 *1009:79 *1016:51 2.95721e-05
100 *1009:98 *1016:51 1.0145e-05
101 *1010:24 *1016:111 2.0514e-05
102 *1010:24 *1016:115 0.000160635
*RES
1 *4765:X *1016:8 11.985 
2 *1016:8 *1016:10 13.365 
3 *1016:10 *1016:12 18.21 
4 *1016:12 *1016:14 3.42 
5 *1016:14 *4174:B1 10.575 
6 *1016:14 *1016:29 2 
7 *1016:29 *1016:39 13.705 
8 *1016:39 *1016:51 11.8 
9 *1016:51 *4333:B1 2.41 
10 *1016:51 *4334:A_N 8.735 
11 *1016:39 *4332:D 1.6 
12 *1016:29 *4175:D 12.745 
13 *1016:12 *4176:A_N 4.05 
14 *1016:10 *4129:D 4.74 
15 *1016:8 *1016:111 8.165 
16 *1016:111 *1016:115 2.88 
17 *1016:115 *4135:A_N 9.575 
18 *1016:115 *4139:A_N 5.89 
19 *1016:111 *4136:B1 1.6 
*END

*D_NET *1017 0.0106596
*CONN
*I *3995:A1 I *D sky130_fd_sc_hd__mux2_1
*I *4486:A1 I *D sky130_fd_sc_hd__mux2_1
*I *4023:A1 I *D sky130_fd_sc_hd__mux2_1
*I *4013:A1 I *D sky130_fd_sc_hd__mux2_1
*I *4051:A0 I *D sky130_fd_sc_hd__mux2_1
*I *4042:A0 I *D sky130_fd_sc_hd__mux2_1
*I *4060:A0 I *D sky130_fd_sc_hd__mux2_1
*I *4004:A1 I *D sky130_fd_sc_hd__mux2_1
*I *4033:A0 I *D sky130_fd_sc_hd__mux2_1
*I *5034:X O *D sky130_fd_sc_hd__clkdlybuf4s25_1
*CAP
1 *3995:A1 0.00058433
2 *4486:A1 9.7292e-05
3 *4023:A1 0.000165644
4 *4013:A1 3.35435e-05
5 *4051:A0 0.000156617
6 *4042:A0 0
7 *4060:A0 0.000501
8 *4004:A1 9.18269e-05
9 *4033:A0 0.000144321
10 *5034:X 7.04803e-05
11 *1017:36 0.000282745
12 *1017:32 0.00093211
13 *1017:24 0.000610138
14 *1017:22 0.000670988
15 *1017:20 0.000374338
16 *1017:18 0.000363363
17 *1017:12 0.000407897
18 *1017:8 0.000819744
19 *4013:A1 *1025:68 2.42043e-05
20 *4023:A1 *1018:66 3.57349e-05
21 *4023:A1 *1018:68 4.82863e-05
22 *4023:A1 *1018:101 6.20787e-05
23 *1017:12 *4233:C1 2.92496e-05
24 *1017:18 *4233:B1 2.28537e-05
25 *1017:18 *4233:C1 0.000130438
26 *1017:32 *4550:RESET_B 0.000118527
27 *3995:A0 *3995:A1 0.00011577
28 *4004:A0 *4004:A1 4.66108e-05
29 *4013:A0 *4013:A1 8.23457e-05
30 *4013:S *4013:A1 8.40213e-05
31 *4014:S *1017:18 0.000144075
32 *4014:S *1017:20 0.000147397
33 *4014:S *1017:22 2.92496e-05
34 *4023:A0 *3995:A1 1.4399e-05
35 *4033:A1 *4033:A0 4.99619e-05
36 *4033:S *4033:A0 0.000239807
37 *4034:S *4051:A0 0.000237249
38 *4042:A1 *1017:24 7.4027e-05
39 *4052:S *1017:18 7.01063e-05
40 *4052:S *1017:20 0.000155928
41 *4052:S *1017:22 0.000498316
42 *4231:B2 *1017:32 0
43 *4233:A1 *1017:18 0.000136463
44 *4236:D_N *4023:A1 4.82863e-05
45 *4236:D_N *1017:22 4.75076e-05
46 *4237:A3 *1017:22 0
47 *4486:A0 *1017:12 0
48 *4486:S *1017:12 0
49 *4502:CLK *1017:32 0
50 *4502:D *1017:32 2.14129e-05
51 *4502:D *1017:36 7.12477e-05
52 *4534:D *1017:32 0
53 *4542:CLK *1017:22 0.000139245
54 *4542:D *1017:22 0
55 *4688:D *4486:A1 6.6564e-05
56 *4688:D *1017:18 7.00889e-06
57 *4848:A *1017:8 0
58 *4848:A *1017:12 0
59 *4871:A *1017:12 0
60 *4947:A *4060:A0 0.000274654
61 *4952:A *1017:32 0
62 *268:51 *1017:22 3.79595e-05
63 *272:57 *4004:A1 5.55258e-05
64 *272:57 *4033:A0 1.08758e-05
65 *276:23 *4033:A0 6.90876e-05
66 *622:27 *1017:32 0
67 *622:29 *1017:32 0
68 *634:16 *4023:A1 0.000159741
69 *642:10 *4060:A0 8.65905e-05
70 *982:111 *1017:22 1.49438e-05
71 *982:151 *1017:22 3.50033e-05
72 *982:151 *1017:24 0.000194523
73 *982:151 *1017:32 0.000304832
74 *982:151 *1017:36 8.93951e-05
75 *1010:58 *4013:A1 2.16833e-05
*RES
1 *5034:X *1017:8 4.725 
2 *1017:8 *1017:12 4.655 
3 *1017:12 *1017:18 5.885 
4 *1017:18 *1017:20 1.89 
5 *1017:20 *1017:22 6.735 
6 *1017:22 *1017:24 4.95 
7 *1017:24 *1017:32 8.505 
8 *1017:32 *1017:36 3.125 
9 *1017:36 *4033:A0 5.17 
10 *1017:36 *4004:A1 3.085 
11 *1017:32 *4060:A0 10.38 
12 *1017:24 *4042:A0 3.6 
13 *1017:22 *4051:A0 5.775 
14 *1017:20 *4013:A1 4.74 
15 *1017:18 *4023:A1 6.81 
16 *1017:12 *4486:A1 3.43 
17 *1017:8 *3995:A1 12 
*END

*D_NET *1018 0.0174947
*CONN
*I *4235:D I *D sky130_fd_sc_hd__and4b_2
*I *4232:A I *D sky130_fd_sc_hd__or4b_2
*I *4763:A I *D sky130_fd_sc_hd__clkdlybuf4s25_1
*I *4284:D I *D sky130_fd_sc_hd__and4b_2
*I *4764:A I *D sky130_fd_sc_hd__clkdlybuf4s25_1
*I *4233:B1 I *D sky130_fd_sc_hd__o211a_2
*I *4234:D I *D sky130_fd_sc_hd__and4bb_2
*I *4765:A I *D sky130_fd_sc_hd__clkdlybuf4s25_1
*I *4766:X O *D sky130_fd_sc_hd__clkdlybuf4s25_1
*CAP
1 *4235:D 0
2 *4232:A 0
3 *4763:A 0
4 *4284:D 0.000398206
5 *4764:A 0.00080046
6 *4233:B1 0.000126939
7 *4234:D 0
8 *4765:A 7.86038e-05
9 *4766:X 0.000420235
10 *1018:107 0.00147436
11 *1018:101 0.000889604
12 *1018:68 0.00075393
13 *1018:66 0.000375322
14 *1018:49 0.000675805
15 *1018:43 0.00119975
16 *1018:16 0.00138503
17 *4284:D *4034:A0 4.82863e-05
18 *4284:D *4284:A_N 0.000192903
19 *4764:A *4061:A0 0.000446541
20 *4764:A *4330:A_N 3.00381e-05
21 *4764:A *1028:22 2.92496e-05
22 *4765:A *1048:58 0.000137571
23 *1018:16 *1024:10 2.82154e-05
24 *1018:16 *1024:12 2.16389e-05
25 *1018:16 *1048:58 4.57357e-05
26 *1018:49 *4542:RESET_B 7.27402e-06
27 *1018:49 *4688:RESET_B 0.00017558
28 *1018:49 *1025:42 0
29 *1018:66 *4232:B 2.19562e-06
30 *1018:66 *1025:42 0
31 *1018:101 *1022:24 1.34503e-05
32 *1018:101 *1025:68 0.000795949
33 *1018:107 *1022:24 0.000275548
34 *1018:107 *1028:20 0.000399694
35 *1018:107 *1028:22 0.000170484
36 *4005:S *4764:A 0.000164536
37 *4006:S *4764:A 0
38 *4014:S *4233:B1 0.000130126
39 *4023:A0 *1018:101 8.66541e-06
40 *4023:A1 *1018:66 3.57349e-05
41 *4023:A1 *1018:68 4.82863e-05
42 *4023:A1 *1018:101 6.20787e-05
43 *4023:S *1018:101 8.7152e-06
44 *4029:A0 *1018:43 0.000408765
45 *4034:A1 *4284:D 4.82919e-05
46 *4034:S *4284:D 6.13486e-05
47 *4052:S *1018:66 4.41506e-05
48 *4052:S *1018:68 1.91597e-05
49 *4052:S *1018:101 0.000194694
50 *4135:C *1018:16 0.000111472
51 *4139:D *1018:16 3.07481e-05
52 *4140:A1 *1018:16 0.000252643
53 *4141:B2 *4765:A 0.000137571
54 *4141:B2 *1018:16 0.000348137
55 *4204:A3 *4764:A 5.33874e-05
56 *4233:A1 *4233:B1 3.72419e-05
57 *4233:A2 *4233:B1 5.4155e-06
58 *4236:A *1018:101 0.000198769
59 *4236:B *1018:49 0
60 *4284:C *4284:D 7.22354e-05
61 *4494:CLK *1018:101 7.69521e-05
62 *4494:D *1018:101 7.22354e-05
63 *4506:CLK *1018:43 0.000628449
64 *4506:CLK *1018:49 0.00045034
65 *4549:CLK *4764:A 2.97004e-06
66 *4551:CLK *4764:A 6.14433e-05
67 *4551:D *4764:A 0
68 *4702:A *4764:A 7.47215e-05
69 *4703:A *4764:A 8.59365e-05
70 *4703:A *1018:107 0.000568504
71 *4848:A *4233:B1 5.71709e-05
72 *4871:A *4233:B1 4.99619e-05
73 *267:62 *4764:A 0
74 *268:32 *1018:43 9.46111e-06
75 *272:22 *4765:A 0.000162311
76 *624:121 *1018:101 0.00019071
77 *624:125 *1018:49 0
78 *634:16 *1018:101 8.23457e-05
79 *646:8 *1018:16 9.17261e-05
80 *982:85 *1018:43 0.00010189
81 *987:118 *4764:A 4.82863e-05
82 *1006:48 *4764:A 0
83 *1006:59 *4764:A 0
84 *1009:14 *1018:16 9.54399e-05
85 *1010:10 *1018:16 8.72665e-06
86 *1010:24 *1018:16 4.47504e-06
87 *1010:42 *1018:49 9.50342e-06
88 *1010:42 *1018:66 0.00045846
89 *1010:58 *1018:101 0.000136284
90 *1016:8 *4765:A 6.27347e-05
91 *1017:18 *4233:B1 2.28537e-05
*RES
1 *4766:X *1018:16 13.32 
2 *1018:16 *4765:A 6.72 
3 *1018:16 *1018:43 16.865 
4 *1018:43 *1018:49 8.96 
5 *1018:49 *4234:D 3.6 
6 *1018:49 *1018:66 8 
7 *1018:66 *1018:68 0.45 
8 *1018:68 *4233:B1 8.555 
9 *1018:68 *1018:101 20.98 
10 *1018:101 *1018:107 11.255 
11 *1018:107 *4764:A 20.22 
12 *1018:107 *4284:D 10.605 
13 *1018:101 *4763:A 1.6 
14 *1018:66 *4232:A 1.6 
15 *1018:43 *4235:D 1.6 
*END

*D_NET *1019 0.0171358
*CONN
*I *4130:A I *D sky130_fd_sc_hd__nor2_2
*I *3971:A I *D sky130_fd_sc_hd__and3_2
*I *3970:A I *D sky130_fd_sc_hd__and2_2
*I *4246:A_N I *D sky130_fd_sc_hd__and4b_2
*I *4244:A_N I *D sky130_fd_sc_hd__and4bb_2
*I *4245:B1 I *D sky130_fd_sc_hd__o211a_2
*I *4242:D I *D sky130_fd_sc_hd__and4b_2
*I *4138:A I *D sky130_fd_sc_hd__nor3b_2
*I *4132:A_N I *D sky130_fd_sc_hd__and3b_2
*I *4131:A I *D sky130_fd_sc_hd__nor3_2
*I *4767:X O *D sky130_fd_sc_hd__clkdlybuf4s25_1
*CAP
1 *4130:A 0
2 *3971:A 0
3 *3970:A 0
4 *4246:A_N 0
5 *4244:A_N 0
6 *4245:B1 0.000512639
7 *4242:D 0.000315491
8 *4138:A 5.15992e-05
9 *4132:A_N 0
10 *4131:A 0.000126965
11 *4767:X 0.000735209
12 *1019:114 0.00083999
13 *1019:91 0.000642843
14 *1019:89 0.000863254
15 *1019:60 0.00028427
16 *1019:54 0.000304667
17 *1019:52 0.00227615
18 *1019:38 0.00152219
19 *1019:32 0.000415397
20 *1019:26 0.000945548
21 *4131:A *4131:B 3.50152e-06
22 *4131:A *1026:55 0.000151536
23 *4138:A *1026:36 0.000123225
24 *4242:D *4160:A 0.00028733
25 *4242:D *4242:C 8.65031e-05
26 *4242:D *4248:A1 6.60042e-05
27 *4242:D *1021:30 0.000135401
28 *4242:D *1029:45 0.000810483
29 *4242:D *1029:55 1.16578e-05
30 *4245:B1 *4245:C1 0.000203644
31 *4245:B1 *1084:25 4.77757e-05
32 *1019:26 *1020:20 1.33285e-05
33 *1019:26 *1026:16 2.30292e-05
34 *1019:26 *1026:22 3.25676e-05
35 *1019:26 *1029:25 0
36 *1019:32 *1020:20 8.23457e-05
37 *1019:38 *3970:B 4.82965e-05
38 *1019:38 *1026:22 2.54436e-05
39 *1019:38 *1026:28 9.17639e-05
40 *1019:52 *3970:B 1.37328e-05
41 *1019:54 *4161:A1 0
42 *1019:89 *4161:A1 0
43 *1019:89 *4161:B2 0
44 *1019:89 *4822:A 2.49909e-05
45 *1019:89 *1089:8 0
46 *1019:114 *4160:A 0.000180395
47 *4108:A0 *1019:89 0
48 *4116:A1 *1019:89 0
49 *4124:S *4242:D 0.000131168
50 *4131:C *4131:A 0.000382492
51 *4161:A2 *4131:A 0.000274654
52 *4161:A2 *1019:52 1.45064e-05
53 *4161:A2 *1019:54 8.47629e-05
54 *4161:A2 *1019:60 0.000205388
55 *4242:B *4242:D 4.82863e-05
56 *4246:C *1019:89 0.00015639
57 *4247:B1 *4245:B1 4.77757e-05
58 *4247:B1 *1019:114 0.000147721
59 *4247:C1 *4245:B1 0
60 *4247:C1 *1019:114 8.58007e-05
61 *4247:D1 *1019:114 4.77757e-05
62 *4248:B1 *4242:D 2.68526e-05
63 *4248:B2 *4242:D 2.68464e-05
64 *4248:B2 *1019:114 4.77388e-05
65 *4392:A *1019:26 6.83447e-05
66 *4478:C *1019:26 6.70554e-05
67 *4590:CLK *4245:B1 0
68 *4595:RESET_B *1019:52 0.000497371
69 *4603:CLK *1019:52 0.000118081
70 *4614:RESET_B *1019:52 0.00019311
71 *4675:D *1019:26 0.000160641
72 *4675:RESET_B *1019:26 0
73 *4727:A *1019:52 0.000119007
74 *4744:A *1019:89 0
75 *4823:A *4242:D 8.40269e-05
76 *4856:A *4245:B1 0.00018471
77 *265:6 *4245:B1 4.77757e-05
78 *286:10 *1019:54 9.19589e-05
79 *286:10 *1019:60 1.7396e-05
80 *286:21 *1019:54 1.43521e-05
81 *286:21 *1019:89 3.6229e-05
82 *307:10 *1019:52 7.23602e-05
83 *532:18 *1019:26 1.88656e-05
84 *969:99 *1019:52 7.06865e-05
85 *982:10 *1019:54 0
86 *982:34 *1019:52 8.58815e-05
87 *987:12 *1019:89 0
88 *1003:50 *1019:114 0.000121643
89 *1003:52 *1019:114 3.78789e-05
90 *1003:58 *4242:D 0.000154557
91 *1003:58 *1019:114 2.46489e-05
92 *1004:46 *1019:26 0.000160424
93 *1004:60 *1019:26 5.83121e-06
94 *1004:60 *1019:32 0.000330434
95 *1004:60 *1019:38 3.09233e-05
96 *1011:16 *1019:26 1.08758e-05
97 *1011:16 *1019:32 3.83194e-05
98 *1011:32 *1019:89 0
99 *1011:38 *4131:A 0.000114951
100 *1011:38 *1019:60 0
101 *1011:69 *1019:89 0.000120655
102 *1011:94 *1019:114 9.47267e-06
*RES
1 *4767:X *1019:26 19.785 
2 *1019:26 *1019:32 6.725 
3 *1019:32 *1019:38 6.23 
4 *1019:38 *1019:52 23.475 
5 *1019:52 *1019:54 2.91 
6 *1019:54 *1019:60 5.12 
7 *1019:60 *4131:A 6.895 
8 *1019:60 *4132:A_N 1.6 
9 *1019:54 *4138:A 4.74 
10 *1019:52 *1019:89 15.53 
11 *1019:89 *1019:91 2 
12 *1019:91 *4242:D 15.18 
13 *1019:91 *1019:114 9.095 
14 *1019:114 *4245:B1 15.02 
15 *1019:114 *4244:A_N 1.6 
16 *1019:89 *4246:A_N 1.6 
17 *1019:38 *3970:A 1.6 
18 *1019:32 *3971:A 3.6 
19 *1019:26 *4130:A 1.6 
*END

*D_NET *1020 0.0070647
*CONN
*I *4479:A1 I *D sky130_fd_sc_hd__a21bo_2
*I *4163:B1 I *D sky130_fd_sc_hd__o211a_2
*I *4165:D I *D sky130_fd_sc_hd__and4b_2
*I *4164:D I *D sky130_fd_sc_hd__and4bb_2
*I *4162:A_N I *D sky130_fd_sc_hd__and4bb_2
*I *4768:X O *D sky130_fd_sc_hd__clkdlybuf4s25_1
*CAP
1 *4479:A1 0
2 *4163:B1 0
3 *4165:D 0.00015434
4 *4164:D 0.000370276
5 *4162:A_N 0
6 *4768:X 0.000402382
7 *1020:26 0.000507676
8 *1020:22 0.000291739
9 *1020:20 0.000280634
10 *1020:14 0.000683016
11 *4164:D *4081:A1 9.79963e-05
12 *4164:D *4164:C 3.00381e-05
13 *4164:D *1065:14 0.000153299
14 *4165:D *4165:A_N 0.000178321
15 *4165:D *4165:C 0.000278111
16 *4165:D *1021:30 7.86408e-05
17 *1020:14 *4768:A 2.75229e-05
18 *1020:14 *1027:20 1.16578e-05
19 *1020:20 *4162:D 0.000152328
20 *1020:20 *4163:A2 0.000138966
21 *1020:20 *1026:16 0.000150653
22 *1020:20 *1026:22 4.82919e-05
23 *1020:20 *1027:41 4.66108e-05
24 *1020:20 *1130:27 0.00124835
25 *1020:26 *1027:26 5.02411e-05
26 *1020:26 *1065:14 5.16418e-05
27 *4105:S *4165:D 0
28 *4166:B *4164:D 0
29 *4166:D *4165:D 2.24992e-05
30 *4166:D *1020:26 7.63204e-05
31 *4477:A2 *1020:14 0.000282217
32 *4478:C *1020:20 5.22304e-05
33 *4479:B1_N *1020:14 8.53113e-06
34 *4479:B1_N *1020:20 9.81771e-05
35 *4579:D *4164:D 0.000160658
36 *4674:D *1020:14 1.34503e-05
37 *4706:A *1020:14 0.000138833
38 *627:52 *4164:D 5.20968e-05
39 *706:73 *4165:D 2.15594e-05
40 *1003:16 *4164:D 0
41 *1003:18 *4164:D 0
42 *1005:36 *4164:D 0.000180672
43 *1011:16 *1020:20 0.000139265
44 *1011:30 *1020:20 0
45 *1012:22 *4165:D 0.000241483
46 *1012:38 *4165:D 4.82919e-05
47 *1019:26 *1020:20 1.33285e-05
48 *1019:32 *1020:20 8.23457e-05
*RES
1 *4768:X *1020:14 12.935 
2 *1020:14 *1020:20 12.21 
3 *1020:20 *1020:22 2 
4 *1020:22 *1020:26 2.34 
5 *1020:26 *4162:A_N 3.6 
6 *1020:26 *4164:D 11.64 
7 *1020:22 *4165:D 9.12 
8 *1020:20 *4163:B1 1.6 
9 *1020:14 *4479:A1 1.6 
*END

*D_NET *1021 0.0274685
*CONN
*I *4767:A I *D sky130_fd_sc_hd__clkdlybuf4s25_1
*I *4183:B1 I *D sky130_fd_sc_hd__o211a_2
*I *4180:A_N I *D sky130_fd_sc_hd__and4b_2
*I *4144:A_N I *D sky130_fd_sc_hd__and4bb_2
*I *4145:D I *D sky130_fd_sc_hd__and4b_2
*I *4143:B1 I *D sky130_fd_sc_hd__o211a_2
*I *4137:C_N I *D sky130_fd_sc_hd__nor3b_4
*I *4155:B1 I *D sky130_fd_sc_hd__o211a_2
*I *4154:A_N I *D sky130_fd_sc_hd__and4bb_2
*I *4156:D I *D sky130_fd_sc_hd__and4bb_2
*I *4769:X O *D sky130_fd_sc_hd__clkdlybuf4s25_1
*CAP
1 *4767:A 0
2 *4183:B1 1.65033e-05
3 *4180:A_N 0.000404404
4 *4144:A_N 0
5 *4145:D 3.82758e-05
6 *4143:B1 1.77753e-05
7 *4137:C_N 0
8 *4155:B1 0.000465852
9 *4154:A_N 0.000123081
10 *4156:D 0
11 *4769:X 0.000143521
12 *1021:139 0.00158198
13 *1021:79 0.000809814
14 *1021:70 0.000783759
15 *1021:64 0.00163417
16 *1021:52 0.00144115
17 *1021:46 0.000485144
18 *1021:42 0.000464122
19 *1021:30 0.00380196
20 *1021:8 0.00241508
21 *4145:D *1029:65 0.000247567
22 *4154:A_N *4155:C1 1.61831e-05
23 *4154:A_N *1029:113 1.83756e-05
24 *4155:B1 *4155:C1 6.12863e-05
25 *4180:A_N *4183:C1 9.50342e-06
26 *4183:B1 *4185:A1 4.66108e-05
27 *1021:8 *1129:16 0
28 *1021:8 *1129:50 0
29 *1021:30 *4165:C 0.00012657
30 *1021:30 *4242:C 0.000196364
31 *1021:30 *4248:A1 0.000344134
32 *1021:30 *1029:45 0.00119272
33 *1021:30 *1029:55 0.000166919
34 *1021:30 *1130:27 0.00139733
35 *1021:46 *4144:C 2.97004e-06
36 *1021:46 *4762:A 0
37 *1021:52 *4143:A2 0
38 *1021:70 *4788:A 0
39 *1021:79 *4155:C1 3.60648e-06
40 *1021:79 *1029:113 0
41 *1021:139 *4183:C1 0.00190373
42 *1021:139 *1029:55 0
43 *1021:139 *1104:10 5.5164e-05
44 *4001:A0 *4155:B1 5.58206e-05
45 *4001:A1 *4155:B1 5.06382e-06
46 *4001:S *4155:B1 3.32976e-05
47 *4082:A0 *4180:A_N 0.000121437
48 *4098:A0 *4180:A_N 0.000137578
49 *4098:A0 *1021:139 0.000201627
50 *4143:A1 *1021:52 1.20741e-05
51 *4145:B *4145:D 0.000278117
52 *4147:B1 *1021:52 3.72916e-05
53 *4147:C1 *1021:52 1.65105e-05
54 *4149:A1 *1021:139 1.88602e-05
55 *4154:B_N *4154:A_N 8.82642e-05
56 *4154:C *4155:B1 0
57 *4154:C *1021:79 0
58 *4155:A2 *4155:B1 4.088e-05
59 *4157:B1 *4154:A_N 3.45679e-05
60 *4165:D *1021:30 7.86408e-05
61 *4166:D *1021:30 7.23602e-05
62 *4182:B *1021:139 7.15823e-05
63 *4183:A1 *4183:B1 2.49909e-05
64 *4242:D *1021:30 0.000135401
65 *4248:A2 *1021:30 0.000269916
66 *4248:B1 *1021:30 4.89295e-05
67 *4248:B2 *1021:30 4.89295e-05
68 *4477:A2 *1021:8 0.000272714
69 *4477:A2 *1021:30 3.09233e-05
70 *4479:B1_N *1021:30 1.44259e-05
71 *4570:CLK *1021:64 0.000127069
72 *4570:RESET_B *1021:64 7.33799e-05
73 *4675:RESET_B *1021:8 6.87923e-05
74 *4675:RESET_B *1021:30 3.86607e-05
75 *4697:A *1021:139 0.00098932
76 *4720:A *1021:42 3.74161e-05
77 *4823:A *1021:30 4.08514e-05
78 *4910:A *4154:A_N 4.82863e-05
79 *4910:A *1021:79 0
80 *429:22 *1021:30 0.000298731
81 *429:22 *1021:42 0.000291568
82 *429:22 *1021:46 8.28738e-05
83 *429:22 *1021:52 8.53113e-06
84 *626:12 *1021:139 1.1561e-05
85 *626:25 *1021:52 0
86 *626:136 *1021:139 6.10014e-05
87 *626:142 *1021:42 0.000163199
88 *701:14 *1021:64 0.000108098
89 *702:14 *4180:A_N 5.21458e-05
90 *775:12 *4180:A_N 8.40213e-05
91 *899:10 *1021:139 7.23602e-05
92 *947:10 *1021:70 0
93 *982:77 *1021:64 2.8185e-05
94 *983:20 *1021:139 0.00052461
95 *984:27 *4154:A_N 0.000505378
96 *987:12 *1021:30 0.000232405
97 *1005:46 *1021:139 0
98 *1013:6 *1021:42 0.000358357
99 *1013:17 *1021:46 0
100 *1013:91 *1021:64 0.00023911
101 *1013:107 *1021:70 9.50342e-06
102 *1013:107 *1021:79 0.000347271
*RES
1 *4769:X *1021:8 7.02 
2 *1021:8 *1021:30 49.41 
3 *1021:30 *1021:42 9.33 
4 *1021:42 *1021:46 3.635 
5 *1021:46 *1021:52 7.43 
6 *1021:52 *1021:64 15.195 
7 *1021:64 *1021:70 10.52 
8 *1021:70 *4156:D 3.6 
9 *1021:70 *1021:79 4.695 
10 *1021:79 *4154:A_N 8.19 
11 *1021:79 *4155:B1 9.75 
12 *1021:64 *4137:C_N 1.6 
13 *1021:52 *4143:B1 1.96 
14 *1021:46 *4145:D 6.12 
15 *1021:42 *4144:A_N 1.6 
16 *1021:30 *1021:139 39.39 
17 *1021:139 *4180:A_N 10.53 
18 *1021:139 *4183:B1 4.05 
19 *1021:8 *4767:A 3.6 
*END

*D_NET *1022 0.0157396
*CONN
*I *4282:C1 I *D sky130_fd_sc_hd__o211a_2
*I *4200:B I *D sky130_fd_sc_hd__and4b_2
*I *4199:C1 I *D sky130_fd_sc_hd__o211a_2
*I *4283:B I *D sky130_fd_sc_hd__and4b_2
*I *4211:B I *D sky130_fd_sc_hd__and4b_2
*I *4213:A_N I *D sky130_fd_sc_hd__and4b_2
*I *4209:A_N I *D sky130_fd_sc_hd__and4bb_2
*I *4134:C_N I *D sky130_fd_sc_hd__nor3b_4
*I *4212:C1 I *D sky130_fd_sc_hd__o211a_2
*I *4280:A_N I *D sky130_fd_sc_hd__and4bb_2
*I *4770:X O *D sky130_fd_sc_hd__clkdlybuf4s25_1
*CAP
1 *4282:C1 1.90984e-05
2 *4200:B 0
3 *4199:C1 8.66033e-05
4 *4283:B 3.98918e-05
5 *4211:B 0.000285735
6 *4213:A_N 0
7 *4209:A_N 0.000380485
8 *4134:C_N 0.000372011
9 *4212:C1 0.000268938
10 *4280:A_N 5.81042e-06
11 *4770:X 0.000303455
12 *1022:114 0.000627119
13 *1022:83 0.000344591
14 *1022:55 0.00111357
15 *1022:51 0.000419929
16 *1022:36 0.00108978
17 *1022:34 0.0010648
18 *1022:26 0.000873137
19 *1022:24 0.000445297
20 *4134:C_N *4559:RESET_B 0.000209179
21 *4134:C_N *4798:A 0
22 *4134:C_N *1034:14 0.000109995
23 *4209:A_N *4969:A 2.47079e-05
24 *4209:A_N *1075:8 9.56061e-05
25 *4211:B *4123:A1 4.43871e-06
26 *4211:B *4597:RESET_B 9.32397e-06
27 *4211:B *4958:A 0.000118943
28 *4211:B *1099:10 0
29 *4211:B *1107:10 6.73424e-05
30 *4212:C1 *4214:A1 0.000307327
31 *1022:24 *1025:68 0.000238137
32 *1022:34 *1028:77 0.000114492
33 *1022:36 *4214:A1 0.000448507
34 *1022:55 *4123:A1 0
35 *1022:114 *4533:RESET_B 0.000162325
36 *4022:S *1022:114 0.000847993
37 *4043:S *1022:36 0.000138734
38 *4134:A *4134:C_N 4.66108e-05
39 *4134:B *4134:C_N 0.000158543
40 *4199:A2 *4199:C1 1.32017e-05
41 *4199:B1 *4199:C1 7.14564e-05
42 *4200:D *4199:C1 5.53249e-06
43 *4200:D *1022:114 0.000220614
44 *4209:B_N *4209:A_N 4.80285e-05
45 *4210:A2 *4134:C_N 3.93101e-05
46 *4211:A_N *4211:B 0.000506547
47 *4211:A_N *1022:83 5.23362e-05
48 *4211:C *4211:B 8.65961e-05
49 *4212:B1 *4212:C1 2.42236e-05
50 *4214:A2 *1022:36 0.000102049
51 *4214:B1 *4211:B 0
52 *4214:C1 *1022:55 4.9968e-05
53 *4214:C1 *1022:83 8.45475e-05
54 *4280:D *1022:24 0
55 *4282:A1 *1022:26 7.24402e-05
56 *4282:A2 *4282:C1 4.00541e-06
57 *4282:A2 *1022:26 0.000138964
58 *4282:A2 *1022:34 0.000199478
59 *4283:A_N *1022:36 2.75229e-05
60 *4284:C *1022:114 0.000276326
61 *4285:B1 *1022:26 8.40213e-05
62 *4559:CLK *4134:C_N 0.000307055
63 *4589:CLK *4212:C1 9.50342e-06
64 *4613:CLK *1022:55 6.97358e-05
65 *4703:A *1022:24 0
66 *4757:A *4199:C1 6.44073e-05
67 *4757:A *1022:114 0.000113199
68 *4816:A *1022:55 0.000298442
69 *4872:A *1022:114 7.18817e-05
70 *623:6 *4209:A_N 1.56428e-05
71 *623:10 *4134:C_N 0.000178439
72 *623:10 *1022:55 3.52241e-05
73 *623:45 *4209:A_N 5.28309e-05
74 *909:12 *4211:B 1.34361e-05
75 *1006:86 *1022:114 3.67779e-05
76 *1007:16 *4280:A_N 4.99619e-05
77 *1007:16 *1022:24 0
78 *1007:39 *1022:34 0
79 *1007:41 *4211:B 8.23457e-05
80 *1007:53 *4212:C1 9.30787e-05
81 *1010:84 *4280:A_N 4.99619e-05
82 *1014:6 *1022:24 0.000202607
83 *1014:6 *1022:26 5.05521e-05
84 *1014:8 *1022:26 8.57406e-05
85 *1014:12 *1022:26 6.1357e-05
86 *1014:12 *1022:34 0.000289758
87 *1014:18 *4211:B 2.75229e-05
88 *1014:20 *4211:B 2.49909e-05
89 *1014:26 *4212:C1 7.23533e-05
90 *1014:102 *1022:114 0.000144179
91 *1018:101 *1022:24 1.34503e-05
92 *1018:107 *1022:24 0.000275548
*RES
1 *4770:X *4280:A_N 3.65 
2 *4770:X *1022:24 12.605 
3 *1022:24 *1022:26 3.9 
4 *1022:26 *1022:34 9.97 
5 *1022:34 *1022:36 10.8 
6 *1022:36 *4212:C1 10.1 
7 *1022:36 *1022:51 2 
8 *1022:51 *1022:55 7.695 
9 *1022:55 *4134:C_N 12.885 
10 *1022:55 *4209:A_N 9.585 
11 *1022:51 *1022:83 3.38 
12 *1022:83 *4213:A_N 1.6 
13 *1022:83 *4211:B 13.415 
14 *1022:34 *4283:B 2.215 
15 *1022:26 *1022:114 20.21 
16 *1022:114 *4199:C1 5.745 
17 *1022:114 *4200:B 3.6 
18 *1022:24 *4282:C1 1.96 
*END

*D_NET *1023 0.0142536
*CONN
*I *4128:A_N I *D sky130_fd_sc_hd__and3b_2
*I *4314:C1 I *D sky130_fd_sc_hd__o211a_2
*I *4313:B_N I *D sky130_fd_sc_hd__and4bb_2
*I *4312:D I *D sky130_fd_sc_hd__and4bb_2
*I *4271:C1 I *D sky130_fd_sc_hd__o211a_2
*I *4270:B I *D sky130_fd_sc_hd__nor4b_2
*I *4269:A_N I *D sky130_fd_sc_hd__and4b_2
*I *4310:B I *D sky130_fd_sc_hd__and4b_2
*I *4330:A_N I *D sky130_fd_sc_hd__and4b_2
*I *4201:A_N I *D sky130_fd_sc_hd__and4b_2
*I *4771:X O *D sky130_fd_sc_hd__clkdlybuf4s25_1
*CAP
1 *4128:A_N 8.92335e-05
2 *4314:C1 0
3 *4313:B_N 0.000369987
4 *4312:D 0.000170513
5 *4271:C1 0.000155277
6 *4270:B 7.56389e-05
7 *4269:A_N 0.000244196
8 *4310:B 0.000109858
9 *4330:A_N 0.000900991
10 *4201:A_N 0
11 *4771:X 0.000344787
12 *1023:103 0.000640761
13 *1023:77 0.000294503
14 *1023:75 0.000184915
15 *1023:71 0.000193458
16 *1023:58 0.000584669
17 *1023:43 0.00113834
18 *1023:37 0.00105477
19 *1023:8 0.00114064
20 *4128:A_N *4771:A 0
21 *4269:A_N *4940:A 5.87261e-05
22 *4269:A_N *1109:10 5.00903e-05
23 *4270:B *4270:D_N 7.87887e-05
24 *4271:C1 *4271:A2 1.89023e-05
25 *4271:C1 *1031:8 0.000384039
26 *4310:B *4310:D 1.87841e-05
27 *4313:B_N *4270:D_N 9.39611e-05
28 *4313:B_N *4313:D 4.6368e-06
29 *4330:A_N *4053:A0 0
30 *1023:8 *4771:A 0.000168213
31 *1023:43 *4310:D 0
32 *1023:43 *4943:A 0
33 *1023:77 *4270:D_N 0.000110161
34 *1023:103 *4270:D_N 8.44308e-05
35 *3994:A0 *4330:A_N 0
36 *4006:S *4330:A_N 0.000682317
37 *4118:A0 *1023:43 0.000180675
38 *4201:B *4330:A_N 9.4087e-05
39 *4201:C *4330:A_N 0.000162311
40 *4201:C *1023:8 1.12578e-05
41 *4201:D *4330:A_N 4.99619e-05
42 *4271:A1 *4271:C1 4.73641e-05
43 *4272:D1 *4271:C1 0.000233557
44 *4310:A_N *4310:B 9.12857e-06
45 *4310:C *4310:B 9.12494e-06
46 *4311:C1 *1023:43 0
47 *4311:C1 *1023:58 6.47919e-06
48 *4312:B_N *4312:D 4.77719e-05
49 *4313:C *4313:B_N 0
50 *4314:B1 *1023:71 0.000378333
51 *4314:B1 *1023:75 4.77807e-05
52 *4315:A2 *4313:B_N 0.000139933
53 *4331:B1 *4330:A_N 0
54 *4493:D *4330:A_N 0
55 *4600:CLK *4313:B_N 5.8085e-05
56 *4600:D *4313:B_N 7.01303e-05
57 *4608:D *1023:43 4.92014e-05
58 *4616:D *1023:43 8.98743e-05
59 *4693:A *1023:71 0.000602303
60 *4764:A *4330:A_N 3.00381e-05
61 *4844:A *4330:A_N 6.14776e-05
62 *614:10 *4312:D 0.000195439
63 *614:125 *4312:D 0.000108156
64 *614:129 *1023:43 0.000130066
65 *614:146 *1023:43 0.000199299
66 *987:118 *4330:A_N 0.000177068
67 *987:118 *1023:37 0.000151541
68 *987:118 *1023:43 0.000689202
69 *994:50 *4128:A_N 5.12942e-05
70 *1008:27 *1023:71 0.000159179
71 *1008:47 *4270:B 0.000129376
72 *1008:47 *1023:77 0.000192231
73 *1015:6 *4330:A_N 0.000112349
74 *1015:32 *4330:A_N 7.99304e-05
75 *1015:79 *4271:C1 5.39775e-05
*RES
1 *4771:X *1023:8 5.08 
2 *1023:8 *4201:A_N 1.6 
3 *1023:8 *4330:A_N 22.715 
4 *4771:X *1023:37 3.085 
5 *1023:37 *1023:43 17.4725 
6 *1023:43 *4310:B 5.2275 
7 *1023:43 *1023:58 2.5575 
8 *1023:58 *4269:A_N 7.785 
9 *1023:58 *1023:71 8.315 
10 *1023:71 *1023:75 2.45 
11 *1023:75 *1023:77 2.4 
12 *1023:77 *4270:B 5.49 
13 *1023:77 *4271:C1 9.015 
14 *1023:75 *1023:103 1.89 
15 *1023:103 *4312:D 7.155 
16 *1023:103 *4313:B_N 9.81 
17 *1023:71 *4314:C1 1.6 
18 *1023:37 *4128:A_N 7.235 
*END

*D_NET *1024 0.0187906
*CONN
*I *4135:D I *D sky130_fd_sc_hd__and4bb_2
*I *4139:B_N I *D sky130_fd_sc_hd__and4bb_2
*I *4136:C1 I *D sky130_fd_sc_hd__o211a_2
*I *4129:A_N I *D sky130_fd_sc_hd__and4b_2
*I *4176:B I *D sky130_fd_sc_hd__and4b_2
*I *4332:A_N I *D sky130_fd_sc_hd__and4bb_2
*I *4333:C1 I *D sky130_fd_sc_hd__o211a_2
*I *4334:B_N I *D sky130_fd_sc_hd__and4bb_2
*I *4175:A_N I *D sky130_fd_sc_hd__and4bb_2
*I *4174:C1 I *D sky130_fd_sc_hd__o211a_2
*I *4772:X O *D sky130_fd_sc_hd__clkdlybuf4s25_1
*CAP
1 *4135:D 3.38648e-05
2 *4139:B_N 0.000123626
3 *4136:C1 4.94107e-05
4 *4129:A_N 9.73191e-06
5 *4176:B 0.000130922
6 *4332:A_N 0
7 *4333:C1 0.000181071
8 *4334:B_N 2.05318e-05
9 *4175:A_N 0.000509502
10 *4174:C1 0.000190295
11 *4772:X 0.000304413
12 *1024:87 0.000209624
13 *1024:76 0.000658976
14 *1024:56 0.000740813
15 *1024:26 0.000928527
16 *1024:24 0.000988211
17 *1024:22 0.00118473
18 *1024:20 0.00111896
19 *1024:12 0.000837218
20 *1024:10 0.000397834
21 *4174:C1 *4528:RESET_B 0
22 *4174:C1 *4781:A 0
23 *4174:C1 *1039:16 1.15688e-05
24 *4175:A_N *1039:16 4.41506e-05
25 *1024:10 *4498:RESET_B 0
26 *1024:10 *4506:SET_B 0
27 *1024:20 *4506:SET_B 0
28 *1024:26 *4528:RESET_B 0
29 *1024:76 *5052:A 4.77807e-05
30 *1024:76 *1039:49 0.000146665
31 *4009:A0 *1024:20 9.74635e-05
32 *4009:A1 *1024:20 2.86265e-06
33 *4009:S *1024:20 2.49909e-05
34 *4040:A1 *4176:B 8.06138e-05
35 *4040:A1 *1024:76 2.0187e-05
36 *4040:S *1024:76 7.50406e-05
37 *4044:S *4333:C1 0.0002336
38 *4044:S *1024:76 0.000645092
39 *4135:C *1024:10 0
40 *4140:A1 *4139:B_N 4.66108e-05
41 *4140:A1 *1024:12 2.92496e-05
42 *4140:A1 *1024:20 0.00015261
43 *4140:A2 *1024:20 3.07395e-05
44 *4140:B1 *4139:B_N 3.64998e-06
45 *4140:C1 *1024:12 0
46 *4141:B2 *4139:B_N 2.62017e-05
47 *4174:B1 *4174:C1 0.000430394
48 *4174:B1 *1024:26 0.000115398
49 *4175:B_N *4175:A_N 0.000673331
50 *4175:D *4175:A_N 4.43634e-05
51 *4176:A_N *4176:B 4.77807e-05
52 *4237:A1 *1024:24 0
53 *4334:D *4334:B_N 6.12198e-05
54 *4334:D *1024:87 2.37248e-05
55 *4335:B1 *4333:C1 0.000169365
56 *4335:B1 *1024:76 0.000109284
57 *4335:B1 *1024:87 4.82863e-05
58 *4486:A0 *1024:10 4.82919e-05
59 *4516:D *4174:C1 3.86607e-05
60 *4516:D *1024:26 2.68721e-05
61 *4532:D *1024:26 0
62 *4532:D *1024:76 8.53011e-05
63 *4540:D *1024:24 0.000356788
64 *4548:D *1024:24 4.40812e-05
65 *4710:A *1024:24 0
66 *4807:A *1024:10 0
67 *4899:A *1024:76 0.00023351
68 *268:107 *4174:C1 8.82557e-05
69 *272:76 *4333:C1 5.80033e-05
70 *274:50 *1024:24 0
71 *275:30 *4129:A_N 4.82863e-05
72 *619:10 *4175:A_N 6.97118e-05
73 *625:39 *1024:20 0.000207896
74 *656:10 *4175:A_N 0.000198939
75 *985:66 *4334:B_N 0.000164874
76 *985:66 *1024:87 1.10085e-05
77 *986:31 *1024:24 4.61701e-06
78 *995:37 *4174:C1 4.82919e-05
79 *1009:6 *4139:B_N 8.65905e-05
80 *1009:24 *4135:D 4.82919e-05
81 *1009:24 *1024:10 0
82 *1009:34 *4129:A_N 4.82863e-05
83 *1009:34 *4136:C1 6.82309e-05
84 *1009:34 *1024:22 0.000808952
85 *1009:34 *1024:24 1.71013e-05
86 *1016:10 *1024:22 0.00111369
87 *1016:10 *1024:24 4.21314e-05
88 *1016:12 *1024:24 0.00152091
89 *1016:14 *1024:24 2.85364e-05
90 *1016:14 *1024:26 0.000251425
91 *1016:51 *4333:C1 0.0002336
92 *1016:51 *1024:76 0.000193129
93 *1016:111 *4136:C1 0.000135903
94 *1016:111 *1024:22 0.00035012
95 *1018:16 *1024:10 2.82154e-05
96 *1018:16 *1024:12 2.16389e-05
*RES
1 *4772:X *1024:10 8.235 
2 *1024:10 *1024:12 1.125 
3 *1024:12 *1024:20 12.895 
4 *1024:20 *1024:22 16.935 
5 *1024:22 *1024:24 18.975 
6 *1024:24 *1024:26 4.44 
7 *1024:26 *4174:C1 8.85 
8 *1024:26 *4175:A_N 13.86 
9 *1024:24 *1024:56 2 
10 *1024:56 *1024:76 17.905 
11 *1024:76 *4334:B_N 3.085 
12 *1024:76 *1024:87 1.155 
13 *1024:87 *4333:C1 10.175 
14 *1024:87 *4332:A_N 1.6 
15 *1024:56 *4176:B 3.79 
16 *1024:22 *4129:A_N 4.05 
17 *1024:20 *4136:C1 5.235 
18 *1024:12 *4139:B_N 5.775 
19 *1024:10 *4135:D 4.05 
*END

*D_NET *1025 0.0183985
*CONN
*I *4771:A I *D sky130_fd_sc_hd__clkdlybuf4s25_1
*I *4772:A I *D sky130_fd_sc_hd__clkdlybuf4s25_1
*I *4235:A_N I *D sky130_fd_sc_hd__and4b_2
*I *4234:A_N I *D sky130_fd_sc_hd__and4bb_2
*I *4770:A I *D sky130_fd_sc_hd__clkdlybuf4s25_1
*I *4284:A_N I *D sky130_fd_sc_hd__and4b_2
*I *4233:C1 I *D sky130_fd_sc_hd__o211a_2
*I *4232:B I *D sky130_fd_sc_hd__or4b_2
*I *4773:X O *D sky130_fd_sc_hd__clkdlybuf4s25_1
*CAP
1 *4771:A 0.000761567
2 *4772:A 0
3 *4235:A_N 0.000600978
4 *4234:A_N 1.60636e-05
5 *4770:A 1.65033e-05
6 *4284:A_N 0.00149711
7 *4233:C1 0.000149805
8 *4232:B 0.000102228
9 *4773:X 5.48205e-05
10 *1025:68 0.0017562
11 *1025:46 0.00110123
12 *1025:42 0.000851336
13 *1025:16 0.000316914
14 *1025:14 0.00182171
15 *1025:8 0.0016423
16 *4771:A *4689:RESET_B 9.91801e-05
17 *4771:A *1035:39 0.000185224
18 *1025:14 *4766:A 0
19 *1025:14 *4773:A 0
20 *1025:14 *5000:A 0.00143643
21 *4013:A0 *4234:A_N 4.00541e-06
22 *4013:A0 *4235:A_N 0.00019333
23 *4013:A0 *1025:46 8.34281e-06
24 *4013:A0 *1025:68 6.1357e-05
25 *4013:A1 *1025:68 2.42043e-05
26 *4013:S *4234:A_N 0
27 *4013:S *1025:68 0.00013186
28 *4034:S *4284:A_N 0.000228642
29 *4052:S *4232:B 4.66108e-05
30 *4128:A_N *4771:A 0
31 *4135:C *1025:14 9.68854e-05
32 *4201:C *4771:A 0.00029521
33 *4233:A1 *4233:C1 0.000112114
34 *4233:A1 *1025:42 1.9668e-05
35 *4235:B *4235:A_N 9.8467e-05
36 *4236:B *4235:A_N 5.83121e-06
37 *4236:B *1025:42 5.13684e-05
38 *4236:B *1025:46 2.49909e-05
39 *4280:D *1025:68 4.82863e-05
40 *4281:C1 *4284:A_N 0
41 *4284:C *4284:A_N 0.000158965
42 *4284:D *4284:A_N 0.000192903
43 *4285:D1 *4284:A_N 0.000121437
44 *4286:B2 *4770:A 2.49909e-05
45 *4286:B2 *1025:68 0
46 *4485:A1 *4771:A 0
47 *4688:CLK *4232:B 3.64998e-06
48 *4688:CLK *1025:16 1.47347e-05
49 *4688:CLK *1025:42 5.83373e-05
50 *4688:D *4233:C1 0
51 *4688:D *1025:42 2.6502e-05
52 *4703:A *4284:A_N 0.000310417
53 *4703:A *1025:68 0.000149071
54 *4757:A *4771:A 0.000464964
55 *4807:A *1025:8 6.93101e-05
56 *4807:A *1025:14 5.91331e-05
57 *4848:A *4233:C1 0
58 *4853:A *4235:A_N 0
59 *5030:A *1025:8 7.38688e-05
60 *5030:A *1025:14 4.55864e-06
61 *3:30 *1025:14 0.000163024
62 *270:56 *1025:14 0.000342923
63 *624:125 *1025:42 3.57846e-05
64 *994:50 *4771:A 0
65 *1007:16 *4770:A 4.66108e-05
66 *1009:34 *4235:A_N 0
67 *1010:24 *4235:A_N 0.000112349
68 *1010:30 *4235:A_N 0.000171887
69 *1010:42 *4232:B 8.73389e-06
70 *1010:42 *1025:14 3.43427e-05
71 *1010:42 *1025:16 1.03323e-05
72 *1010:58 *1025:68 3.74576e-05
73 *1010:84 *4771:A 1.01661e-05
74 *1014:6 *1025:68 0.000467074
75 *1017:12 *4233:C1 2.92496e-05
76 *1017:18 *4233:C1 0.000130438
77 *1018:49 *1025:42 0
78 *1018:66 *4232:B 2.19562e-06
79 *1018:66 *1025:42 0
80 *1018:101 *1025:68 0.000795949
81 *1022:24 *1025:68 0.000238137
82 *1023:8 *4771:A 0.000168213
*RES
1 *4773:X *1025:8 5.235 
2 *1025:8 *1025:14 24.845 
3 *1025:14 *1025:16 0.795 
4 *1025:16 *4232:B 2.74 
5 *1025:16 *4233:C1 8.72 
6 *1025:14 *1025:42 7.42 
7 *1025:42 *1025:46 1.155 
8 *1025:46 *1025:68 21.725 
9 *1025:68 *4284:A_N 17.055 
10 *1025:68 *4770:A 4.05 
11 *1025:46 *4234:A_N 1.96 
12 *1025:42 *4235:A_N 14.735 
13 *1025:8 *4772:A 3.6 
14 *4284:A_N *4771:A 25.89 
*END

*D_NET *1026 0.0160411
*CONN
*I *4130:B I *D sky130_fd_sc_hd__nor2_2
*I *3971:B I *D sky130_fd_sc_hd__and3_2
*I *3970:B I *D sky130_fd_sc_hd__and2_2
*I *4138:B I *D sky130_fd_sc_hd__nor3b_2
*I *4131:B I *D sky130_fd_sc_hd__nor3_2
*I *4245:C1 I *D sky130_fd_sc_hd__o211a_2
*I *4244:D I *D sky130_fd_sc_hd__and4bb_2
*I *4246:B I *D sky130_fd_sc_hd__and4b_2
*I *4242:A_N I *D sky130_fd_sc_hd__and4b_2
*I *4132:B I *D sky130_fd_sc_hd__and3b_2
*I *4774:X O *D sky130_fd_sc_hd__clkdlybuf4s25_1
*CAP
1 *4130:B 0
2 *3971:B 3.38751e-05
3 *3970:B 3.09388e-05
4 *4138:B 2.08101e-05
5 *4131:B 1.77579e-05
6 *4245:C1 0.000388745
7 *4244:D 4.7659e-05
8 *4246:B 0.000231642
9 *4242:A_N 0
10 *4132:B 3.03378e-05
11 *4774:X 0.000463046
12 *1026:89 0.000536666
13 *1026:78 0.00045473
14 *1026:69 0.000675976
15 *1026:55 0.000666452
16 *1026:42 0.000263613
17 *1026:36 0.00144038
18 *1026:28 0.0014444
19 *1026:22 0.000417558
20 *1026:16 0.000715109
21 *4244:D *4244:C 4.99619e-05
22 *4245:C1 *4092:A0 0
23 *4245:C1 *4963:A 0
24 *4245:C1 *1084:25 8.65961e-05
25 *4246:B *4822:A 8.52845e-05
26 *1026:36 *4121:A0 0.000413655
27 *1026:36 *1113:29 6.12198e-05
28 *1026:69 *4116:A0 2.23922e-05
29 *1026:69 *4124:A1 0.000183043
30 *1026:69 *4181:D 0.000539125
31 *1026:69 *1108:19 0.000106655
32 *1026:78 *4116:A0 0.000179987
33 *1026:78 *4181:D 0.000324965
34 *1026:89 *4092:A0 0
35 *1026:89 *4181:D 3.18735e-05
36 *4092:S *4246:B 0.000260369
37 *4113:A0 *1026:36 0
38 *4121:A1 *1026:36 0.000138175
39 *4131:A *4131:B 3.50152e-06
40 *4131:A *1026:55 0.000151536
41 *4131:C *4131:B 5.12969e-06
42 *4131:C *1026:55 4.34223e-05
43 *4131:C *1026:69 3.51072e-05
44 *4138:A *1026:36 0.000123225
45 *4138:C_N *4138:B 0
46 *4138:C_N *1026:36 2.75145e-05
47 *4138:C_N *1026:42 4.66826e-05
48 *4161:A2 *1026:55 0.000124895
49 *4168:A1 *1026:36 8.8266e-05
50 *4168:A2 *1026:36 4.99619e-05
51 *4168:A3 *1026:36 4.82863e-05
52 *4168:B1 *1026:36 0.000141988
53 *4242:B *1026:89 8.98683e-05
54 *4243:B1 *1026:69 0
55 *4244:B_N *4244:D 4.82863e-05
56 *4245:B1 *4245:C1 0.000203644
57 *4246:C *4246:B 2.79137e-05
58 *4248:B1 *1026:78 1.82476e-05
59 *4248:B2 *1026:78 0
60 *4248:B2 *1026:89 0
61 *4392:A *1026:16 2.23485e-05
62 *4392:A *1026:22 0
63 *4478:C *1026:16 0.000654859
64 *4481:B *1026:22 0
65 *4582:RESET_B *4245:C1 0.000133183
66 *4675:CLK *1026:16 0
67 *4675:D *1026:16 9.50342e-06
68 *4676:CLK *1026:28 1.71013e-05
69 *4676:CLK *1026:36 8.08153e-06
70 *4676:D *1026:22 5.16418e-05
71 *4676:D *1026:28 0.000118513
72 *4706:A *1026:16 2.78732e-05
73 *4706:A *1026:22 0
74 *4803:A *1026:36 7.67345e-05
75 *4856:A *4245:C1 7.89767e-05
76 *4856:A *1026:89 8.78735e-05
77 *255:18 *1026:36 0.000342254
78 *255:61 *1026:28 0.000160641
79 *256:12 *1026:28 2.50049e-05
80 *265:6 *4245:C1 8.65961e-05
81 *279:10 *1026:69 5.06989e-05
82 *286:10 *1026:36 4.82863e-05
83 *297:12 *1026:55 0.00048613
84 *297:12 *1026:69 0.000383509
85 *305:16 *1026:69 0.000217723
86 *314:25 *1026:36 0
87 *392:18 *1026:42 0
88 *613:14 *1026:22 0
89 *626:90 *1026:69 3.1835e-05
90 *705:38 *4132:B 5.16348e-05
91 *705:38 *1026:42 0.000155928
92 *969:70 *1026:69 0
93 *988:10 *1026:69 0.000164679
94 *1004:60 *1026:22 1.15688e-05
95 *1011:8 *3971:B 4.82863e-05
96 *1011:16 *1026:22 0.000330434
97 *1011:94 *4244:D 8.49205e-05
98 *1012:14 *1026:22 0
99 *1019:26 *1026:16 2.30292e-05
100 *1019:26 *1026:22 3.25676e-05
101 *1019:38 *3970:B 4.82965e-05
102 *1019:38 *1026:22 2.54436e-05
103 *1019:38 *1026:28 9.17639e-05
104 *1019:52 *3970:B 1.37328e-05
105 *1020:20 *1026:16 0.000150653
106 *1020:20 *1026:22 4.82919e-05
*RES
1 *4774:X *1026:16 13.085 
2 *1026:16 *1026:22 7.4 
3 *1026:22 *1026:28 5.72 
4 *1026:28 *1026:36 26.92 
5 *1026:36 *1026:42 4.685 
6 *1026:42 *4132:B 4.215 
7 *1026:42 *1026:55 6.59 
8 *1026:55 *1026:69 21.015 
9 *1026:69 *4242:A_N 3.6 
10 *1026:69 *1026:78 3.93 
11 *1026:78 *4246:B 8.535 
12 *1026:78 *1026:89 2.655 
13 *1026:89 *4244:D 4.74 
14 *1026:89 *4245:C1 12.405 
15 *1026:55 *4131:B 1.96 
16 *1026:36 *4138:B 1.96 
17 *1026:28 *3970:B 2.395 
18 *1026:22 *3971:B 4.05 
19 *1026:16 *4130:B 1.6 
*END

*D_NET *1027 0.00684691
*CONN
*I *4477:A1 I *D sky130_fd_sc_hd__a21bo_2
*I *4476:B I *D sky130_fd_sc_hd__or3_2
*I *4164:A_N I *D sky130_fd_sc_hd__and4bb_2
*I *4162:D I *D sky130_fd_sc_hd__and4bb_2
*I *4163:C1 I *D sky130_fd_sc_hd__o211a_2
*I *4165:A_N I *D sky130_fd_sc_hd__and4b_2
*I *4775:X O *D sky130_fd_sc_hd__clkdlybuf4s25_1
*CAP
1 *4477:A1 0
2 *4476:B 0
3 *4164:A_N 5.39439e-05
4 *4162:D 9.79004e-05
5 *4163:C1 0
6 *4165:A_N 8.70693e-05
7 *4775:X 0.000506768
8 *1027:41 0.000111554
9 *1027:26 0.000200987
10 *1027:24 0.000868253
11 *1027:20 0.000936942
12 *1027:12 0.000729666
13 *4162:D *4163:A2 0.000161529
14 *4164:A_N *1065:14 0.000221366
15 *4165:A_N *4165:C 0.000162311
16 *4165:A_N *1029:45 0.00016063
17 *1027:12 *1129:50 0
18 *1027:26 *1065:14 0.000179701
19 *1027:41 *4163:A2 4.66108e-05
20 *3989:C *1027:12 7.22354e-05
21 *4027:B *1027:12 1.61831e-05
22 *4162:B_N *4162:D 7.23602e-05
23 *4164:B_N *4162:D 1.44259e-05
24 *4165:D *4165:A_N 0.000178321
25 *4477:B1_N *1027:20 0.000117723
26 *4477:B1_N *1027:24 0.000163199
27 *4571:RESET_B *4164:A_N 0.000129047
28 *4674:D *1027:12 0.000116165
29 *4674:D *1027:20 8.41359e-05
30 *4706:A *1027:12 0.000195977
31 *4935:A *1027:12 0
32 *5022:A *1027:12 4.99619e-05
33 *248:68 *1027:12 0.000155547
34 *627:20 *1027:12 5.69248e-06
35 *627:37 *1027:24 9.23863e-05
36 *695:23 *1027:12 3.90495e-05
37 *706:73 *4164:A_N 0.000100162
38 *706:73 *4165:A_N 0.000176647
39 *706:73 *1027:26 0.000281619
40 *1020:14 *1027:20 1.16578e-05
41 *1020:20 *4162:D 0.000152328
42 *1020:20 *1027:41 4.66108e-05
43 *1020:26 *1027:26 5.02411e-05
*RES
1 *4775:X *1027:12 14.615 
2 *1027:12 *1027:20 3.945 
3 *1027:20 *1027:24 10.385 
4 *1027:24 *1027:26 3.42 
5 *1027:26 *4165:A_N 7.23 
6 *1027:26 *1027:41 2.45 
7 *1027:41 *4163:C1 1.6 
8 *1027:41 *4162:D 8.465 
9 *1027:24 *4164:A_N 6.255 
10 *1027:20 *4476:B 1.6 
11 *1027:12 *4477:A1 1.6 
*END

*D_NET *1028 0.0162504
*CONN
*I *4014:A1 I *D sky130_fd_sc_hd__mux2_1
*I *4005:A1 I *D sky130_fd_sc_hd__mux2_1
*I *4024:A1 I *D sky130_fd_sc_hd__mux2_1
*I *4052:A0 I *D sky130_fd_sc_hd__mux2_1
*I *4043:A0 I *D sky130_fd_sc_hd__mux2_1
*I *4487:A1 I *D sky130_fd_sc_hd__mux2_1
*I *3996:A1 I *D sky130_fd_sc_hd__mux2_1
*I *4034:A0 I *D sky130_fd_sc_hd__mux2_1
*I *4061:A0 I *D sky130_fd_sc_hd__mux2_1
*I *5035:X O *D sky130_fd_sc_hd__clkdlybuf4s25_1
*CAP
1 *4014:A1 0
2 *4005:A1 0
3 *4024:A1 0.000160228
4 *4052:A0 0
5 *4043:A0 2.13317e-05
6 *4487:A1 0.000590103
7 *3996:A1 0.000415844
8 *4034:A0 3.38751e-05
9 *4061:A0 0.000424582
10 *5035:X 0.00103745
11 *1028:77 0.00106183
12 *1028:63 0.000751178
13 *1028:61 0.000638337
14 *1028:59 0.000478539
15 *1028:22 0.000523627
16 *1028:20 0.000646456
17 *1028:18 0.000825321
18 *1028:12 0.00139611
19 *4024:A1 *4519:RESET_B 0
20 *4487:A1 *4215:A1_N 0
21 *4487:A1 *4613:RESET_B 0
22 *4487:A1 *4815:A 0
23 *1028:18 *4503:RESET_B 0.00030135
24 *1028:77 *4519:RESET_B 4.39001e-05
25 *1028:77 *1035:46 0.000119332
26 *3994:S *3996:A1 4.21973e-05
27 *3996:A0 *3996:A1 4.82863e-05
28 *3996:S *3996:A1 1.08758e-05
29 *4005:S *4061:A0 0.000250378
30 *4005:S *1028:18 2.15594e-05
31 *4005:S *1028:20 0.000275317
32 *4005:S *1028:22 3.13381e-05
33 *4014:A0 *1028:12 6.95739e-05
34 *4022:S *4024:A1 8.62613e-05
35 *4024:S *4024:A1 0.000268258
36 *4034:A1 *3996:A1 0.000155497
37 *4034:A1 *1028:22 0.00013521
38 *4043:A1 *4043:A0 6.45236e-05
39 *4043:A1 *4487:A1 0.000187759
40 *4043:S *1028:77 0.000114492
41 *4052:S *1028:59 0.00046193
42 *4052:S *1028:61 0.000272984
43 *4052:S *1028:63 0.000316415
44 *4214:A2 *3996:A1 0.000396579
45 *4214:A2 *4043:A0 7.23602e-05
46 *4214:A2 *4487:A1 7.70758e-05
47 *4214:A2 *1028:77 7.67436e-05
48 *4281:A1 *3996:A1 0.000187402
49 *4281:A2 *3996:A1 2.91343e-05
50 *4281:B1 *3996:A1 1.68183e-05
51 *4281:B2 *3996:A1 5.4155e-06
52 *4283:A_N *1028:77 0
53 *4284:D *4034:A0 4.82863e-05
54 *4285:A1 *1028:18 0
55 *4487:A0 *4487:A1 4.99619e-05
56 *4503:D *4024:A1 0.000113416
57 *4511:D *1028:18 5.05521e-05
58 *4519:D *4024:A1 0
59 *4535:CLK *4487:A1 0
60 *4535:CLK *1028:77 8.65905e-05
61 *4535:D *1028:77 2.67022e-05
62 *4543:CLK *1028:77 0
63 *4543:D *1028:77 4.94326e-05
64 *4551:D *4061:A0 0.000203178
65 *4689:D *4487:A1 5.36384e-06
66 *4703:A *1028:18 1.52184e-05
67 *4703:A *1028:20 5.99925e-05
68 *4716:A *1028:18 5.70461e-06
69 *4764:A *4061:A0 0.000446541
70 *4764:A *1028:22 2.92496e-05
71 *4818:A *1028:12 0
72 *4848:A *1028:12 8.65905e-05
73 *4885:A *1028:18 0
74 *4937:A *3996:A1 8.8266e-05
75 *3:30 *1028:18 0.000102021
76 *266:26 *1028:12 0.000621884
77 *273:38 *4061:A0 0.000285127
78 *360:16 *4487:A1 0
79 *623:109 *4487:A1 0
80 *667:14 *3996:A1 3.66286e-05
81 *982:111 *3996:A1 1.12578e-05
82 *1007:39 *1028:77 0
83 *1018:107 *1028:20 0.000399694
84 *1018:107 *1028:22 0.000170484
85 *1022:34 *1028:77 0.000114492
*RES
1 *5035:X *1028:12 22.745 
2 *1028:12 *1028:18 9.245 
3 *1028:18 *1028:20 5.97 
4 *1028:20 *1028:22 2.4 
5 *1028:22 *4061:A0 15.12 
6 *1028:22 *4034:A0 4.05 
7 *1028:20 *3996:A1 13.14 
8 *1028:18 *1028:59 6.245 
9 *1028:59 *1028:61 2.52 
10 *1028:61 *1028:63 3.9 
11 *1028:63 *1028:77 14.37 
12 *1028:77 *4487:A1 13.35 
13 *1028:77 *4043:A0 4.47 
14 *1028:63 *4052:A0 1.6 
15 *1028:61 *4024:A1 9.785 
16 *1028:59 *4005:A1 1.6 
17 *1028:12 *4014:A1 1.6 
*END

*D_NET *1029 0.0293344
*CONN
*I *4774:A I *D sky130_fd_sc_hd__clkdlybuf4s25_1
*I *4183:C1 I *D sky130_fd_sc_hd__o211a_2
*I *4145:A_N I *D sky130_fd_sc_hd__and4b_2
*I *4144:D I *D sky130_fd_sc_hd__and4bb_2
*I *4156:A_N I *D sky130_fd_sc_hd__and4bb_2
*I *4154:D I *D sky130_fd_sc_hd__and4bb_2
*I *4155:C1 I *D sky130_fd_sc_hd__o211a_2
*I *4137:A I *D sky130_fd_sc_hd__nor3b_4
*I *4143:C1 I *D sky130_fd_sc_hd__o211a_2
*I *4775:A I *D sky130_fd_sc_hd__clkdlybuf4s25_1
*I *4776:X O *D sky130_fd_sc_hd__clkdlybuf4s25_1
*CAP
1 *4774:A 0
2 *4183:C1 0.000941138
3 *4145:A_N 0
4 *4144:D 0.000115301
5 *4156:A_N 0
6 *4154:D 0
7 *4155:C1 0.000497042
8 *4137:A 6.68618e-05
9 *4143:C1 5.73973e-05
10 *4775:A 0.000235286
11 *4776:X 0.000160123
12 *1029:113 0.000738442
13 *1029:105 0.000473352
14 *1029:90 0.000702376
15 *1029:67 0.000479855
16 *1029:65 0.000293524
17 *1029:57 0.000203046
18 *1029:55 0.00141562
19 *1029:45 0.00299256
20 *1029:25 0.00282553
21 *1029:8 0.000659139
22 *4144:D *4147:A1 2.66935e-05
23 *4183:C1 *4145:C 0.000183043
24 *4183:C1 *4182:A 0.000174457
25 *4183:C1 *1074:10 0.0002766
26 *4775:A *1128:26 0.000147944
27 *1029:8 *4776:A 0.000198939
28 *1029:45 *4165:C 0.000147811
29 *1029:55 *4145:C 4.66108e-05
30 *1029:57 *4145:C 0.000276441
31 *1029:65 *4145:C 0.000163199
32 *1029:90 *4080:A0 6.29663e-05
33 *3963:A *1029:8 8.65961e-05
34 *3965:C *4775:A 5.94288e-05
35 *4001:A1 *4155:C1 0.000134387
36 *4026:S *1029:113 0
37 *4080:S *1029:90 8.23457e-05
38 *4140:A2 *4137:A 8.97832e-05
39 *4140:A2 *1029:105 5.72829e-05
40 *4144:B_N *4144:D 4.99619e-05
41 *4145:B *1029:65 2.59322e-05
42 *4145:D *1029:65 0.000247567
43 *4147:A2 *1029:65 2.91343e-05
44 *4147:D1 *1029:65 0.000238919
45 *4149:A1 *4183:C1 1.88602e-05
46 *4154:A_N *4155:C1 1.61831e-05
47 *4154:A_N *1029:113 1.83756e-05
48 *4154:B_N *4155:C1 0.000223804
49 *4155:A1 *4155:C1 8.49205e-05
50 *4155:A2 *4155:C1 0.000159741
51 *4155:B1 *4155:C1 6.12863e-05
52 *4157:B1 *1029:113 6.02123e-05
53 *4157:D1 *1029:105 0.000163204
54 *4157:D1 *1029:113 0
55 *4158:A3 *1029:113 0
56 *4165:A_N *1029:45 0.00016063
57 *4166:D *1029:45 0.000278117
58 *4180:A_N *4183:C1 9.50342e-06
59 *4242:D *1029:45 0.000810483
60 *4242:D *1029:55 1.16578e-05
61 *4243:C1 *1029:55 4.99619e-05
62 *4373:A *4183:C1 0.000633927
63 *4392:A *1029:45 0.000161529
64 *4475:A1 *1029:25 0
65 *4478:A *1029:45 1.60203e-05
66 *4478:C *1029:25 0
67 *4478:C *1029:45 0.000140852
68 *4479:B1_N *1029:45 0.000426206
69 *4570:D *1029:90 1.83847e-05
70 *4594:RESET_B *4183:C1 0.00037354
71 *4674:RESET_B *4775:A 1.43521e-05
72 *4674:RESET_B *1029:25 0
73 *4697:A *4183:C1 0.000110745
74 *4748:A *4775:A 4.68279e-05
75 *4755:A *4775:A 6.46436e-05
76 *4755:A *1029:25 0.000159957
77 *4791:A *1029:90 3.00381e-05
78 *4823:A *1029:45 0.00021105
79 *4910:A *1029:113 2.46089e-05
80 *5022:A *4775:A 4.82919e-05
81 *429:6 *1029:65 0.000311294
82 *429:6 *1029:90 0.00103578
83 *567:6 *1029:45 0.0001249
84 *613:22 *1029:55 0.000273872
85 *626:8 *1029:55 1.91597e-05
86 *701:14 *4143:C1 8.53113e-06
87 *702:14 *4183:C1 3.67658e-05
88 *702:28 *4183:C1 0.00061403
89 *704:10 *1029:45 0.000122331
90 *724:12 *4144:D 5.83121e-06
91 *947:10 *4155:C1 0.000119461
92 *980:12 *1029:45 7.25761e-06
93 *982:77 *4143:C1 0.000168488
94 *982:77 *4144:D 0.000108329
95 *982:77 *1029:67 4.54719e-05
96 *982:85 *1029:113 1.88602e-05
97 *987:24 *1029:55 0.000213477
98 *987:24 *1029:57 0.00019598
99 *987:24 *1029:65 0.000397794
100 *987:49 *4143:C1 4.28639e-05
101 *987:49 *1029:67 1.22762e-05
102 *999:16 *4183:C1 0
103 *1000:28 *4143:C1 2.05661e-05
104 *1004:8 *1029:25 0.000107634
105 *1004:10 *1029:25 0.000182757
106 *1004:10 *1029:45 0
107 *1005:16 *1029:8 0.000312176
108 *1005:46 *1029:55 0.000222813
109 *1012:20 *1029:45 0.000253633
110 *1012:22 *1029:45 2.20732e-05
111 *1013:19 *4144:D 0
112 *1013:19 *1029:67 0
113 *1013:40 *1029:65 3.40841e-05
114 *1013:40 *1029:90 0.000367241
115 *1013:101 *4137:A 8.76986e-05
116 *1013:101 *1029:105 0.000288203
117 *1013:107 *4155:C1 1.52184e-05
118 *1019:26 *1029:25 0
119 *1021:30 *1029:45 0.00119272
120 *1021:30 *1029:55 0.000166919
121 *1021:79 *4155:C1 3.60648e-06
122 *1021:79 *1029:113 0
123 *1021:139 *4183:C1 0.00190373
124 *1021:139 *1029:55 0
*RES
1 *4776:X *1029:8 7.845 
2 *1029:8 *4775:A 8.94 
3 *1029:8 *1029:25 7.715 
4 *1029:25 *1029:45 46.465 
5 *1029:45 *1029:55 14.11 
6 *1029:55 *1029:57 2.52 
7 *1029:57 *1029:65 9.815 
8 *1029:65 *1029:67 0.615 
9 *1029:67 *4143:C1 5.49 
10 *1029:67 *1029:90 16.42 
11 *1029:90 *4137:A 6 
12 *1029:90 *1029:105 7.79 
13 *1029:105 *1029:113 8.125 
14 *1029:113 *4155:C1 14.21 
15 *1029:113 *4154:D 1.6 
16 *1029:105 *4156:A_N 1.6 
17 *1029:65 *4144:D 5.775 
18 *1029:57 *4145:A_N 1.6 
19 *1029:55 *4183:C1 36.86 
20 *1029:25 *4774:A 1.6 
*END

*D_NET *1030 0.00222375
*CONN
*I *5050:A I *D sky130_fd_sc_hd__clkbuf_4
*I *4600:RESET_B I *D sky130_fd_sc_hd__dfrtp_2
*I *4777:X O *D sky130_fd_sc_hd__clkdlybuf4s25_1
*CAP
1 *5050:A 0
2 *4600:RESET_B 0.000402187
3 *4777:X 0.000345025
4 *1030:8 0.000747212
5 *4600:RESET_B *4267:A 2.93063e-05
6 *4600:RESET_B *4310:D 0
7 *1030:8 *4777:A 1.42674e-05
8 *4272:A2 *4600:RESET_B 0.000262509
9 *4272:D1 *4600:RESET_B 8.33066e-06
10 *4272:D1 *1030:8 0.000414916
11 *4316:B2 *4600:RESET_B 0
*RES
1 *4777:X *1030:8 6.205 
2 *1030:8 *4600:RESET_B 12.265 
3 *1030:8 *5050:A 1.6 
*END

*D_NET *1031 0.00854225
*CONN
*I *4591:RESET_B I *D sky130_fd_sc_hd__dfrtp_2
*I *4567:RESET_B I *D sky130_fd_sc_hd__dfrtp_2
*I *4592:RESET_B I *D sky130_fd_sc_hd__dfrtp_2
*I *4584:RESET_B I *D sky130_fd_sc_hd__dfrtp_2
*I *4576:RESET_B I *D sky130_fd_sc_hd__dfrtp_2
*I *4568:RESET_B I *D sky130_fd_sc_hd__dfrtp_2
*I *4583:RESET_B I *D sky130_fd_sc_hd__dfrtp_2
*I *4575:RESET_B I *D sky130_fd_sc_hd__dfrtp_2
*I *4560:RESET_B I *D sky130_fd_sc_hd__dfrtp_2
*I *5050:X O *D sky130_fd_sc_hd__clkbuf_4
*CAP
1 *4591:RESET_B 9.57279e-05
2 *4567:RESET_B 0.000276986
3 *4592:RESET_B 0.000343016
4 *4584:RESET_B 0
5 *4576:RESET_B 1.85291e-05
6 *4568:RESET_B 3.21096e-05
7 *4583:RESET_B 2.70079e-05
8 *4575:RESET_B 0.000441301
9 *4560:RESET_B 7.78427e-05
10 *5050:X 0.000605867
11 *1031:88 0.000399722
12 *1031:63 0.000424518
13 *1031:53 0.000214247
14 *1031:43 0.000296991
15 *1031:18 0.000659434
16 *1031:14 0.000452983
17 *1031:8 0.00106923
18 *4560:RESET_B *1062:12 5.23485e-05
19 *4567:RESET_B *1062:12 0
20 *4575:RESET_B *1062:12 1.5186e-05
21 *4576:RESET_B *1078:10 4.24575e-05
22 *4591:RESET_B *4994:A 7.40482e-06
23 *4591:RESET_B *1085:6 2.98807e-05
24 *4592:RESET_B *1078:10 0.0001009
25 *4592:RESET_B *1078:23 2.97004e-06
26 *4592:RESET_B *1086:21 0
27 *1031:8 *4777:A 8.41384e-05
28 *1031:14 *4315:A1 0.000157913
29 *1031:14 *1062:12 9.50347e-05
30 *1031:43 *4315:A1 0.000280612
31 *1031:53 *4314:A2 0
32 *1031:53 *4315:A1 0.000232599
33 *1031:63 *4314:A2 0
34 *1031:63 *1078:10 4.70343e-05
35 *1031:63 *1086:21 0
36 *4070:A0 *1031:14 0
37 *4070:A1 *4591:RESET_B 0.00037248
38 *4070:A1 *1031:14 0
39 *4070:A1 *1031:88 0.000119066
40 *4086:A1 *1031:53 0
41 *4086:A1 *1031:63 0
42 *4271:C1 *1031:8 0.000384039
43 *4272:D1 *1031:8 2.382e-05
44 *4560:CLK *4575:RESET_B 0.000132861
45 *4560:D *1031:14 9.30717e-05
46 *4560:D *1031:18 0.000205428
47 *4567:CLK *4567:RESET_B 1.34594e-05
48 *4567:D *4567:RESET_B 4.82863e-05
49 *4575:D *4575:RESET_B 0.000198423
50 *4583:CLK *1031:88 6.07575e-06
51 *4583:D *1031:18 0
52 *4583:D *1031:88 2.40101e-05
53 *4591:D *4591:RESET_B 8.71672e-05
54 *4592:D *4592:RESET_B 3.09164e-05
55 *614:16 *4567:RESET_B 4.75576e-05
56 *614:22 *4591:RESET_B 7.49327e-05
57 *614:22 *1031:88 4.82919e-05
58 *990:30 *1031:43 7.77167e-06
59 *1015:79 *1031:8 4.05997e-05
*RES
1 *5050:X *1031:8 13.365 
2 *1031:8 *1031:14 6.78 
3 *1031:14 *1031:18 4.91 
4 *1031:18 *4560:RESET_B 1.4325 
5 *1031:18 *4575:RESET_B 6.3975 
6 *1031:14 *4583:RESET_B 2 
7 *1031:8 *1031:43 3.42 
8 *1031:43 *4568:RESET_B 2.3975 
9 *1031:43 *1031:53 2.91 
10 *1031:53 *4576:RESET_B 2.3975 
11 *1031:53 *1031:63 1.635 
12 *1031:63 *4584:RESET_B 2 
13 *1031:63 *4592:RESET_B 7.4975 
14 *4583:RESET_B *1031:88 1.0875 
15 *1031:88 *4567:RESET_B 8.0575 
16 *1031:88 *4591:RESET_B 3.5025 
*END

*D_NET *1032 0.00599444
*CONN
*I *4541:RESET_B I *D sky130_fd_sc_hd__dfrtp_2
*I *4616:RESET_B I *D sky130_fd_sc_hd__dfrtp_2
*I *4608:RESET_B I *D sky130_fd_sc_hd__dfrtp_2
*I *4607:RESET_B I *D sky130_fd_sc_hd__dfrtp_2
*I *4599:RESET_B I *D sky130_fd_sc_hd__dfrtp_2
*I *4615:RESET_B I *D sky130_fd_sc_hd__dfrtp_2
*I *4778:X O *D sky130_fd_sc_hd__clkdlybuf4s25_1
*CAP
1 *4541:RESET_B 0.000207399
2 *4616:RESET_B 3.53178e-05
3 *4608:RESET_B 0.000161569
4 *4607:RESET_B 5.79314e-05
5 *4599:RESET_B 0.000192284
6 *4615:RESET_B 0.000395685
7 *4778:X 0.000395685
8 *1032:64 0.000281207
9 *1032:54 0.000729743
10 *1032:36 0.000657312
11 *1032:20 0.00026198
12 *4608:RESET_B *1110:12 8.8266e-05
13 *1032:54 *4316:A1 0.000115197
14 *1032:54 *1118:8 1.1561e-05
15 *1032:64 *1118:8 5.21046e-05
16 *4070:A1 *4607:RESET_B 8.24372e-05
17 *4070:A1 *4615:RESET_B 4.36645e-05
18 *4273:A3 *4607:RESET_B 2.56899e-05
19 *4273:A3 *4615:RESET_B 8.33066e-06
20 *4599:D *1032:54 5.59179e-05
21 *4607:CLK *4599:RESET_B 0.000199953
22 *4607:CLK *4615:RESET_B 5.83121e-06
23 *4607:CLK *1032:36 0.000127004
24 *4607:CLK *1032:54 4.4123e-05
25 *4607:D *4615:RESET_B 2.04748e-05
26 *4615:D *4599:RESET_B 0
27 *4845:A *4541:RESET_B 0.00010301
28 *4845:A *1032:64 8.08153e-06
29 *4941:A *4607:RESET_B 0
30 *620:17 *4599:RESET_B 4.78461e-05
31 *620:21 *4599:RESET_B 4.70393e-05
32 *991:12 *4615:RESET_B 0.000224136
33 *991:62 *4541:RESET_B 7.62032e-05
34 *991:62 *1032:54 0
35 *994:50 *4541:RESET_B 0.00024612
36 *994:50 *1032:54 0.000374844
37 *994:50 *1032:64 0.000108329
38 *994:69 *4615:RESET_B 0.000117544
39 *994:69 *1032:54 0.000384625
*RES
1 *4778:X *4615:RESET_B 11.81 
2 *4615:RESET_B *1032:20 2 
3 *1032:20 *4599:RESET_B 6.2075 
4 *1032:20 *1032:36 1.5075 
5 *1032:36 *4607:RESET_B 3.425 
6 *1032:36 *1032:54 11.8425 
7 *1032:54 *4608:RESET_B 4.4675 
8 *1032:54 *1032:64 1.38 
9 *1032:64 *4616:RESET_B 2.3975 
10 *1032:64 *4541:RESET_B 7.0325 
*END

*D_NET *1033 0.00127954
*CONN
*I *5051:A I *D sky130_fd_sc_hd__clkbuf_4
*I *4517:RESET_B I *D sky130_fd_sc_hd__dfrtp_2
*I *4779:X O *D sky130_fd_sc_hd__clkdlybuf4s25_1
*CAP
1 *5051:A 7.96738e-05
2 *4517:RESET_B 0.000150263
3 *4779:X 0
4 *1033:6 0.000229937
5 *4517:RESET_B *1043:59 0.000157602
6 *5051:A *1034:14 4.82919e-05
7 *4199:A2 *4517:RESET_B 1.1392e-05
8 *4215:A2_N *5051:A 1.4399e-05
9 *1007:123 *4517:RESET_B 4.19797e-05
10 *1007:123 *5051:A 8.17924e-05
11 *1014:102 *4517:RESET_B 0.000265924
12 *1014:102 *5051:A 0.000198286
*RES
1 *4779:X *1033:6 3.6 
2 *1033:6 *4517:RESET_B 5.9075 
3 *1033:6 *5051:A 6.45 
*END

*D_NET *1034 0.0106323
*CONN
*I *4597:RESET_B I *D sky130_fd_sc_hd__dfrtp_2
*I *4605:RESET_B I *D sky130_fd_sc_hd__dfrtp_2
*I *4589:RESET_B I *D sky130_fd_sc_hd__dfrtp_2
*I *4581:RESET_B I *D sky130_fd_sc_hd__dfrtp_2
*I *4573:RESET_B I *D sky130_fd_sc_hd__dfrtp_2
*I *4565:RESET_B I *D sky130_fd_sc_hd__dfrtp_2
*I *4687:RESET_B I *D sky130_fd_sc_hd__dfrtp_2
*I *4557:RESET_B I *D sky130_fd_sc_hd__dfrtp_2
*I *4559:RESET_B I *D sky130_fd_sc_hd__dfrtp_2
*I *5051:X O *D sky130_fd_sc_hd__clkbuf_4
*CAP
1 *4597:RESET_B 0.000166537
2 *4605:RESET_B 0.000384107
3 *4589:RESET_B 0.000357109
4 *4581:RESET_B 2.69083e-05
5 *4573:RESET_B 0
6 *4565:RESET_B 0.000147613
7 *4687:RESET_B 0.000101392
8 *4557:RESET_B 0.000336917
9 *4559:RESET_B 9.32675e-05
10 *5051:X 0.00114006
11 *1034:65 0.000422472
12 *1034:58 0.000337122
13 *1034:34 0.000167907
14 *1034:14 0.00157024
15 *4557:RESET_B *4210:A1 2.49909e-05
16 *4557:RESET_B *1059:6 0.000179713
17 *4559:RESET_B *4069:A0 0.000343907
18 *4559:RESET_B *4798:A 0
19 *4589:RESET_B *4875:A 3.35901e-05
20 *4589:RESET_B *1083:8 7.14696e-05
21 *4597:RESET_B *4958:A 0.000249785
22 *4605:RESET_B *4099:A0 2.14129e-05
23 *4605:RESET_B *4107:A1 0.000197826
24 *4605:RESET_B *4214:A1 3.09164e-05
25 *4605:RESET_B *1091:23 8.45475e-05
26 *4605:RESET_B *1107:8 8.72971e-05
27 *1034:14 *4215:A1_N 4.15527e-05
28 *1034:14 *4798:A 8.65905e-05
29 *4041:A1 *1034:14 0.00027299
30 *4067:A0 *4565:RESET_B 3.25831e-05
31 *4067:A0 *4687:RESET_B 0.000235585
32 *4075:A1 *4565:RESET_B 0.000110683
33 *4075:A1 *1034:58 0.000233925
34 *4075:A1 *1034:65 0.000108322
35 *4091:A0 *4605:RESET_B 1.91597e-05
36 *4107:A0 *4605:RESET_B 6.51658e-05
37 *4134:C_N *4559:RESET_B 0.000209179
38 *4134:C_N *1034:14 0.000109995
39 *4210:A2 *4557:RESET_B 0.000265744
40 *4210:A2 *4559:RESET_B 0.000116158
41 *4211:B *4597:RESET_B 9.32397e-06
42 *4214:B1 *4597:RESET_B 0
43 *4215:A2_N *1034:14 0.000326063
44 *4215:B1 *1034:14 0.000200887
45 *4215:B2 *1034:14 3.00381e-05
46 *4557:D *4687:RESET_B 0
47 *4559:CLK *4559:RESET_B 1.84712e-05
48 *4565:D *4565:RESET_B 0
49 *4581:D *4581:RESET_B 1.23607e-05
50 *4970:A *1034:65 0
51 *5051:A *1034:14 4.82919e-05
52 *624:35 *4605:RESET_B 0.000338523
53 *789:8 *4557:RESET_B 0.000196833
54 *993:31 *4605:RESET_B 5.8322e-05
55 *993:35 *4605:RESET_B 0.000196048
56 *993:37 *4589:RESET_B 0
57 *993:37 *4605:RESET_B 0.000138544
58 *993:43 *4589:RESET_B 0
59 *993:43 *1034:65 0
60 *993:54 *1034:65 0.000155176
61 *993:56 *1034:58 0.000233925
62 *993:56 *1034:65 0.00018471
*RES
1 *5051:X *1034:14 22.8 
2 *1034:14 *4559:RESET_B 6.185 
3 *1034:14 *4557:RESET_B 8.9525 
4 *4557:RESET_B *1034:34 2 
5 *1034:34 *4687:RESET_B 4.655 
6 *1034:34 *4565:RESET_B 3.635 
7 *4565:RESET_B *1034:58 5.0525 
8 *1034:58 *4573:RESET_B 2 
9 *1034:58 *1034:65 5.715 
10 *1034:65 *4581:RESET_B 2.3975 
11 *1034:65 *4589:RESET_B 4.91 
12 *4589:RESET_B *4605:RESET_B 11.5525 
13 *4605:RESET_B *4597:RESET_B 7.3975 
*END

*D_NET *1035 0.00668934
*CONN
*I *4613:RESET_B I *D sky130_fd_sc_hd__dfrtp_2
*I *4543:RESET_B I *D sky130_fd_sc_hd__dfrtp_2
*I *4519:RESET_B I *D sky130_fd_sc_hd__dfrtp_2
*I *4535:RESET_B I *D sky130_fd_sc_hd__dfrtp_2
*I *4689:RESET_B I *D sky130_fd_sc_hd__dfrtp_2
*I *4533:RESET_B I *D sky130_fd_sc_hd__dfrtp_2
*I *4780:X O *D sky130_fd_sc_hd__clkdlybuf4s25_1
*CAP
1 *4613:RESET_B 0.000382466
2 *4543:RESET_B 3.92206e-05
3 *4519:RESET_B 0.00029376
4 *4535:RESET_B 0
5 *4689:RESET_B 0.000875587
6 *4533:RESET_B 0.000200642
7 *4780:X 0.000200642
8 *1035:46 0.000501709
9 *1035:39 0.00044823
10 *1035:23 0.000772623
11 *4613:RESET_B *4215:A1_N 0
12 *4613:RESET_B *4798:A 0
13 *4022:S *4519:RESET_B 0
14 *4022:S *4533:RESET_B 7.00889e-06
15 *4022:S *1035:46 0
16 *4024:A1 *4519:RESET_B 0
17 *4041:A1 *4689:RESET_B 0.000118504
18 *4041:A1 *1035:39 4.65565e-05
19 *4043:S *1035:39 0.000288788
20 *4043:S *1035:46 6.81159e-05
21 *4052:A1 *4519:RESET_B 0.000205735
22 *4200:D *4533:RESET_B 7.23602e-05
23 *4215:B2 *4613:RESET_B 0.000337538
24 *4282:A2 *4519:RESET_B 0
25 *4283:D *1035:39 8.99646e-05
26 *4283:D *1035:46 0.000116151
27 *4487:A1 *4613:RESET_B 0
28 *4503:D *4519:RESET_B 0
29 *4517:D *4689:RESET_B 4.82919e-05
30 *4689:CLK *4533:RESET_B 3.74359e-05
31 *4689:CLK *4689:RESET_B 0.000387896
32 *4771:A *4689:RESET_B 9.91801e-05
33 *4771:A *1035:39 0.000185224
34 *4799:A *4613:RESET_B 6.73578e-05
35 *4852:A *1035:39 0.000120186
36 *4872:A *4533:RESET_B 8.82978e-05
37 *273:38 *4533:RESET_B 2.58106e-05
38 *360:16 *4613:RESET_B 0
39 *624:18 *4519:RESET_B 4.77531e-05
40 *992:12 *4613:RESET_B 7.67639e-05
41 *994:29 *4613:RESET_B 0.00011398
42 *994:50 *4689:RESET_B 0
43 *1010:84 *1035:39 0
44 *1010:84 *1035:46 0
45 *1022:114 *4533:RESET_B 0.000162325
46 *1028:77 *4519:RESET_B 4.39001e-05
47 *1028:77 *1035:46 0.000119332
*RES
1 *4780:X *4533:RESET_B 9.3725 
2 *4533:RESET_B *1035:23 2 
3 *1035:23 *4689:RESET_B 11.1725 
4 *1035:23 *1035:39 8.82 
5 *1035:39 *4535:RESET_B 2 
6 *1035:39 *1035:46 4.185 
7 *1035:46 *4519:RESET_B 7.6175 
8 *1035:46 *4543:RESET_B 2.45 
9 *4689:RESET_B *4613:RESET_B 12.52 
*END

*D_NET *1036 0.00212603
*CONN
*I *5052:A I *D sky130_fd_sc_hd__buf_4
*I *4512:RESET_B I *D sky130_fd_sc_hd__dfrtp_2
*I *4781:X O *D sky130_fd_sc_hd__clkdlybuf4s25_1
*CAP
1 *5052:A 0.000273556
2 *4512:RESET_B 0
3 *4781:X 0.00025046
4 *1036:14 0.000524016
5 *5052:A *1037:8 5.31158e-06
6 *1036:14 *4784:A 0
7 *4012:S *1036:14 0
8 *4015:S *1036:14 0
9 *4035:A1 *5052:A 0.000124005
10 *4035:A1 *1036:14 6.55328e-05
11 *4035:S *5052:A 1.32017e-05
12 *4035:S *1036:14 7.6664e-05
13 *4044:S *5052:A 4.77807e-05
14 *4484:S *1036:14 3.45438e-05
15 *4899:A *5052:A 0.000103439
16 *668:10 *5052:A 0.000153587
17 *994:69 *1036:14 3.08098e-05
18 *1009:79 *5052:A 0.00028431
19 *1009:98 *5052:A 1.88602e-05
20 *1016:51 *5052:A 7.21709e-05
21 *1024:76 *5052:A 4.77807e-05
*RES
1 *4781:X *1036:14 8.37 
2 *1036:14 *4512:RESET_B 2 
3 *1036:14 *5052:A 10.53 
*END

*D_NET *1037 0.00942911
*CONN
*I *4509:RESET_B I *D sky130_fd_sc_hd__dfrtp_2
*I *4544:RESET_B I *D sky130_fd_sc_hd__dfrtp_2
*I *4504:RESET_B I *D sky130_fd_sc_hd__dfrtp_2
*I *4525:RESET_B I *D sky130_fd_sc_hd__dfrtp_2
*I *4488:RESET_B I *D sky130_fd_sc_hd__dfrtp_2
*I *4496:RESET_B I *D sky130_fd_sc_hd__dfrtp_2
*I *4549:SET_B I *D sky130_fd_sc_hd__dfstp_2
*I *4493:RESET_B I *D sky130_fd_sc_hd__dfrtp_2
*I *4536:RESET_B I *D sky130_fd_sc_hd__dfrtp_2
*I *5052:X O *D sky130_fd_sc_hd__buf_4
*CAP
1 *4509:RESET_B 5.61903e-05
2 *4544:RESET_B 0.000177161
3 *4504:RESET_B 4.09922e-05
4 *4525:RESET_B 0.000284881
5 *4488:RESET_B 0.000154489
6 *4496:RESET_B 0.000175326
7 *4549:SET_B 0.000243651
8 *4493:RESET_B 0
9 *4536:RESET_B 0.000285316
10 *5052:X 7.26338e-05
11 *1037:65 0.000592272
12 *1037:61 0.000394439
13 *1037:59 0.000504636
14 *1037:22 0.00073696
15 *1037:12 0.00125875
16 *1037:8 0.000911207
17 *4504:RESET_B *1043:20 2.75229e-05
18 *1037:8 *4552:RESET_B 3.63701e-06
19 *1037:61 *1039:121 0
20 *1037:65 *3987:A1 0.000155906
21 *1037:65 *4976:A 0
22 *1037:65 *1039:121 0
23 *3987:A0 *1037:65 0
24 *3994:S *4549:SET_B 9.60047e-05
25 *3997:A0 *1037:12 0.000192509
26 *3997:S *1037:12 6.62684e-05
27 *4032:A1 *4509:RESET_B 0
28 *4070:A1 *1037:65 0
29 *4198:A *4549:SET_B 2.97122e-05
30 *4202:A1 *4509:RESET_B 0
31 *4204:A2 *1037:22 0
32 *4204:B2 *4549:SET_B 0
33 *4281:A2 *4549:SET_B 0
34 *4330:B *4544:RESET_B 1.88554e-05
35 *4331:A1 *4536:RESET_B 8.34281e-06
36 *4331:B1 *4549:SET_B 0
37 *4331:B1 *1037:22 0
38 *4335:A1 *4496:RESET_B 1.10435e-05
39 *4335:A1 *1037:8 4.05363e-05
40 *4336:A1 *4496:RESET_B 8.73147e-06
41 *4336:A2 *4496:RESET_B 0.000133082
42 *4496:D *1037:12 1.79098e-05
43 *4509:CLK *1037:65 5.23362e-05
44 *4536:D *4544:RESET_B 1.0397e-05
45 *4536:D *1037:61 3.72007e-05
46 *4814:A *4549:SET_B 4.19059e-05
47 *4814:A *1037:22 5.92849e-05
48 *4904:A *4536:RESET_B 8.41384e-05
49 *4904:A *1037:12 0.000235382
50 *5052:A *1037:8 5.31158e-06
51 *267:54 *4549:SET_B 4.82792e-05
52 *275:42 *4496:RESET_B 4.27109e-05
53 *620:57 *4488:RESET_B 0.000181353
54 *620:57 *4525:RESET_B 2.49909e-05
55 *636:10 *4496:RESET_B 5.7626e-05
56 *982:162 *4496:RESET_B 0.000172402
57 *982:174 *4496:RESET_B 0.000169195
58 *982:174 *1037:8 0.000140891
59 *985:99 *4536:RESET_B 0.000117108
60 *985:99 *4544:RESET_B 5.20249e-05
61 *985:99 *1037:22 9.23804e-06
62 *985:99 *1037:59 0.000152785
63 *987:94 *4549:SET_B 0.000119066
64 *1006:12 *4509:RESET_B 0.000120186
65 *1006:22 *4544:RESET_B 0.00038114
66 *1006:22 *1037:61 0.000273597
67 *1006:22 *1037:65 0.000141599
*RES
1 *5052:X *1037:8 5.49 
2 *1037:8 *1037:12 13.49 
3 *1037:12 *4536:RESET_B 2.1225 
4 *1037:12 *1037:22 10.01 
5 *1037:22 *4493:RESET_B 2 
6 *1037:22 *4549:SET_B 7.2725 
7 *1037:8 *4496:RESET_B 6.9275 
8 *4536:RESET_B *1037:59 4.9325 
9 *1037:59 *1037:61 3.42 
10 *1037:61 *1037:65 6.695 
11 *1037:65 *4488:RESET_B 2.8125 
12 *1037:65 *4525:RESET_B 3.1575 
13 *1037:61 *4504:RESET_B 2.7575 
14 *1037:59 *4544:RESET_B 6.695 
15 *4525:RESET_B *4509:RESET_B 5.38 
*END

*D_NET *1038 0.00199356
*CONN
*I *4510:RESET_B I *D sky130_fd_sc_hd__dfrtp_2
*I *5053:A I *D sky130_fd_sc_hd__buf_4
*I *4782:X O *D sky130_fd_sc_hd__clkdlybuf4s25_1
*CAP
1 *4510:RESET_B 0.000275638
2 *5053:A 2.51931e-05
3 *4782:X 0.000108277
4 *1038:10 0.000409108
5 *4510:RESET_B *4688:RESET_B 2.60986e-05
6 *5053:A *1040:6 4.66108e-05
7 *1038:10 *4783:A 4.92062e-05
8 *4235:B *4510:RESET_B 0
9 *4236:C *4510:RESET_B 9.0444e-05
10 *4237:A3 *4510:RESET_B 0.000515355
11 *4237:A3 *1038:10 0.000114492
12 *4853:A *4510:RESET_B 8.47308e-05
13 *272:57 *4510:RESET_B 0.000187409
14 *272:57 *1038:10 6.10014e-05
*RES
1 *4782:X *1038:10 5.775 
2 *1038:10 *5053:A 4.05 
3 *1038:10 *4510:RESET_B 10.265 
*END

*D_NET *1039 0.0151132
*CONN
*I *4053:A0 I *D sky130_fd_sc_hd__mux2_1
*I *4006:A1 I *D sky130_fd_sc_hd__mux2_1
*I *4044:A0 I *D sky130_fd_sc_hd__mux2_1
*I *3987:A1 I *D sky130_fd_sc_hd__mux2_1
*I *4015:A1 I *D sky130_fd_sc_hd__mux2_1
*I *4035:A0 I *D sky130_fd_sc_hd__mux2_1
*I *4062:A0 I *D sky130_fd_sc_hd__mux2_1
*I *3997:A1 I *D sky130_fd_sc_hd__mux2_1
*I *4025:A1 I *D sky130_fd_sc_hd__mux2_1
*I *5036:X O *D sky130_fd_sc_hd__clkdlybuf4s25_1
*CAP
1 *4053:A0 0.000557793
2 *4006:A1 4.86993e-05
3 *4044:A0 0
4 *3987:A1 0.000713661
5 *4015:A1 0
6 *4035:A0 0.000164763
7 *4062:A0 0.000283554
8 *3997:A1 3.69588e-05
9 *4025:A1 0.000983583
10 *5036:X 0.000415292
11 *1039:130 0.00072536
12 *1039:121 0.000292241
13 *1039:102 0.00117573
14 *1039:49 0.00050652
15 *1039:26 0.000957817
16 *1039:22 0.000530292
17 *1039:16 0.0007039
18 *3987:A1 *1043:20 3.95549e-05
19 *4025:A1 *4520:RESET_B 7.98735e-05
20 *4062:A0 *4552:RESET_B 0.000608261
21 *1039:16 *4528:RESET_B 0.000198939
22 *1039:22 *4528:RESET_B 0.000226633
23 *1039:26 *4552:RESET_B 2.95708e-05
24 *1039:49 *4552:RESET_B 0.000394567
25 *1039:102 *1043:20 0.000253987
26 *3987:A0 *3987:A1 0.00012657
27 *3987:S *3987:A1 3.00381e-05
28 *3997:A0 *3997:A1 4.66108e-05
29 *4006:A0 *4006:A1 4.89395e-05
30 *4006:S *4053:A0 0
31 *4015:S *1039:16 1.19928e-05
32 *4015:S *1039:22 9.53428e-06
33 *4035:S *4035:A0 0.000154202
34 *4053:A1 *4053:A0 0.000198046
35 *4062:A1 *4062:A0 8.23457e-05
36 *4062:S *4062:A0 5.83121e-06
37 *4174:B1 *1039:16 0.000312792
38 *4174:C1 *1039:16 1.15688e-05
39 *4175:A_N *1039:16 4.41506e-05
40 *4175:D *1039:16 1.19928e-05
41 *4268:A2 *4006:A1 1.56428e-05
42 *4268:A2 *4053:A0 6.4428e-05
43 *4268:A2 *1039:121 8.33066e-06
44 *4268:A2 *1039:130 0.000318407
45 *4330:A_N *4053:A0 0
46 *4331:B1 *4053:A0 0
47 *4331:B2 *4006:A1 0.000158552
48 *4331:C1 *4053:A0 6.22332e-05
49 *4335:A2 *4062:A0 0.000171001
50 *4335:A2 *1039:49 0.000129028
51 *4335:B1 *1039:49 1.50951e-05
52 *4504:CLK *1039:121 0
53 *4504:D *1039:121 6.48605e-05
54 *4504:D *1039:130 0.000109367
55 *4509:CLK *3987:A1 0.000208957
56 *4516:CLK *1039:16 0.000238919
57 *4525:D *3987:A1 6.74079e-05
58 *4528:D *4025:A1 3.20961e-05
59 *4528:D *4035:A0 0
60 *4528:D *1039:26 2.0851e-06
61 *4844:A *4053:A0 0.00015997
62 *272:76 *4025:A1 6.57171e-05
63 *272:76 *1039:26 0
64 *272:76 *1039:49 0
65 *274:50 *4053:A0 0.00011417
66 *275:42 *4062:A0 5.46798e-05
67 *280:95 *4062:A0 0.000520943
68 *660:10 *4025:A1 0
69 *985:66 *4025:A1 0.000620285
70 *985:66 *1039:102 0.000183177
71 *995:37 *1039:16 7.55391e-05
72 *995:46 *1039:16 0.000119227
73 *1006:12 *3987:A1 0
74 *1016:39 *1039:16 0.000208339
75 *1024:76 *1039:49 0.000146665
76 *1037:61 *1039:121 0
77 *1037:65 *3987:A1 0.000155906
78 *1037:65 *1039:121 0
*RES
1 *5036:X *1039:16 17.15 
2 *1039:16 *1039:22 6.95 
3 *1039:22 *1039:26 1.32 
4 *1039:26 *4025:A1 17.17 
5 *1039:26 *1039:49 4.95 
6 *1039:49 *3997:A1 4.05 
7 *1039:49 *4062:A0 13.26 
8 *1039:22 *4035:A0 7.02 
9 *1039:16 *4015:A1 1.6 
10 *4025:A1 *1039:102 8.275 
11 *1039:102 *3987:A1 17.915 
12 *1039:102 *1039:121 4.91 
13 *1039:121 *4044:A0 3.6 
14 *1039:121 *1039:130 3.93 
15 *1039:130 *4006:A1 5.085 
16 *1039:130 *4053:A0 13.23 
*END

*D_NET *1040 0.0108994
*CONN
*I *4503:RESET_B I *D sky130_fd_sc_hd__dfrtp_2
*I *4495:RESET_B I *D sky130_fd_sc_hd__dfrtp_2
*I *4527:RESET_B I *D sky130_fd_sc_hd__dfrtp_2
*I *4501:RESET_B I *D sky130_fd_sc_hd__dfrtp_2
*I *4502:RESET_B I *D sky130_fd_sc_hd__dfrtp_2
*I *4518:RESET_B I *D sky130_fd_sc_hd__dfrtp_2
*I *4511:RESET_B I *D sky130_fd_sc_hd__dfrtp_2
*I *4494:RESET_B I *D sky130_fd_sc_hd__dfrtp_2
*I *4551:RESET_B I *D sky130_fd_sc_hd__dfrtp_2
*I *5053:X O *D sky130_fd_sc_hd__buf_4
*CAP
1 *4503:RESET_B 0.000674942
2 *4495:RESET_B 4.5703e-05
3 *4527:RESET_B 0
4 *4501:RESET_B 0.000594822
5 *4502:RESET_B 0.0002052
6 *4518:RESET_B 0.000831838
7 *4511:RESET_B 0.000235831
8 *4494:RESET_B 0
9 *4551:RESET_B 0.000226543
10 *5053:X 0.000215148
11 *1040:68 0.00016367
12 *1040:54 0.000712789
13 *1040:25 0.000468815
14 *1040:18 0.000653468
15 *1040:8 0.00135194
16 *1040:6 0.00096837
17 *4502:RESET_B *4534:RESET_B 0.00013521
18 *4502:RESET_B *4542:RESET_B 0.000204463
19 *4502:RESET_B *1042:61 0.000556536
20 *3994:S *1040:18 0
21 *4014:S *4503:RESET_B 0.000130289
22 *4023:A0 *4518:RESET_B 0
23 *4042:A1 *1040:8 0.000160635
24 *4052:S *4511:RESET_B 0.000181375
25 *4215:A2_N *4551:RESET_B 4.61647e-05
26 *4231:A1 *4502:RESET_B 0
27 *4237:A2 *4502:RESET_B 0.00019194
28 *4281:A2 *4495:RESET_B 4.32126e-05
29 *4281:A2 *4501:RESET_B 0.000274669
30 *4281:A2 *1040:68 0.000104218
31 *4286:A1 *1040:18 0
32 *4286:A2 *1040:18 0
33 *4286:B1 *1040:18 0.000224287
34 *4286:B2 *1040:18 0
35 *4542:D *1040:18 0
36 *4551:D *4501:RESET_B 0
37 *4877:A *4501:RESET_B 0
38 *4936:A *4502:RESET_B 5.21545e-05
39 *5053:A *1040:6 4.66108e-05
40 *5063:A *4501:RESET_B 0.000194816
41 *266:34 *4518:RESET_B 8.68792e-05
42 *266:34 *1040:18 0
43 *266:34 *1040:25 4.91642e-05
44 *624:12 *4503:RESET_B 1.23607e-05
45 *634:16 *4518:RESET_B 0
46 *634:16 *1040:25 0
47 *651:8 *4511:RESET_B 4.66108e-05
48 *667:14 *4495:RESET_B 0.00010596
49 *667:14 *1040:68 5.4003e-05
50 *958:109 *1040:18 0
51 *986:10 *4501:RESET_B 6.96579e-05
52 *994:25 *4503:RESET_B 0.000147489
53 *1010:58 *1040:18 0.000111324
54 *1010:58 *1040:25 1.89685e-05
55 *1028:18 *4503:RESET_B 0.00030135
*RES
1 *5053:X *1040:6 4.465 
2 *1040:6 *1040:8 8.04 
3 *1040:8 *4551:RESET_B 3.1575 
4 *1040:8 *1040:18 12.815 
5 *1040:18 *4494:RESET_B 2 
6 *1040:18 *1040:25 1.635 
7 *1040:25 *4511:RESET_B 6.1925 
8 *1040:25 *4518:RESET_B 4.91 
9 *1040:6 *4502:RESET_B 12.01 
10 *4551:RESET_B *1040:54 2 
11 *1040:54 *4501:RESET_B 14.3075 
12 *1040:54 *1040:68 2.91 
13 *1040:68 *4527:RESET_B 2 
14 *1040:68 *4495:RESET_B 3.38 
15 *4518:RESET_B *4503:RESET_B 11.04 
*END

*D_NET *1041 0.00471367
*CONN
*I *4688:RESET_B I *D sky130_fd_sc_hd__dfrtp_2
*I *4526:RESET_B I *D sky130_fd_sc_hd__dfrtp_2
*I *4550:RESET_B I *D sky130_fd_sc_hd__dfrtp_2
*I *4542:RESET_B I *D sky130_fd_sc_hd__dfrtp_2
*I *4534:RESET_B I *D sky130_fd_sc_hd__dfrtp_2
*I *4783:X O *D sky130_fd_sc_hd__clkdlybuf4s25_1
*CAP
1 *4688:RESET_B 0.000321592
2 *4526:RESET_B 0.000250376
3 *4550:RESET_B 0.000280742
4 *4542:RESET_B 0.000859209
5 *4534:RESET_B 0.000143617
6 *4783:X 0.00020698
7 *1041:8 0.000857848
8 *4231:A1 *4534:RESET_B 0
9 *4235:B *4688:RESET_B 0
10 *4236:C *4688:RESET_B 9.0444e-05
11 *4237:A2 *4534:RESET_B 4.82919e-05
12 *4237:A3 *4542:RESET_B 0
13 *4502:RESET_B *4534:RESET_B 0.00013521
14 *4502:RESET_B *4542:RESET_B 0.000204463
15 *4506:CLK *4542:RESET_B 4.55864e-06
16 *4506:CLK *4688:RESET_B 0.000122331
17 *4510:RESET_B *4688:RESET_B 2.60986e-05
18 *4526:D *4526:RESET_B 2.91561e-06
19 *4550:D *4526:RESET_B 0.000114789
20 *4936:A *4542:RESET_B 0
21 *273:26 *1041:8 0.000150237
22 *622:16 *4534:RESET_B 0.000119066
23 *622:53 *4526:RESET_B 0.000190547
24 *650:10 *4688:RESET_B 0
25 *682:6 *4688:RESET_B 4.82863e-05
26 *982:151 *4534:RESET_B 0
27 *982:151 *4542:RESET_B 0
28 *982:151 *4550:RESET_B 0.000118527
29 *1010:42 *4688:RESET_B 0.000116165
30 *1017:32 *4550:RESET_B 0.000118527
31 *1018:49 *4542:RESET_B 7.27402e-06
32 *1018:49 *4688:RESET_B 0.00017558
*RES
1 *4783:X *1041:8 6.12 
2 *1041:8 *4534:RESET_B 4.7225 
3 *1041:8 *4542:RESET_B 11.03 
4 *4534:RESET_B *4550:RESET_B 5.38 
5 *4550:RESET_B *4526:RESET_B 4.485 
6 *4542:RESET_B *4688:RESET_B 10.8925 
*END

*D_NET *1042 0.0102
*CONN
*I *4783:A I *D sky130_fd_sc_hd__clkdlybuf4s25_1
*I *4782:A I *D sky130_fd_sc_hd__clkdlybuf4s25_1
*I *4552:RESET_B I *D sky130_fd_sc_hd__dfrtp_2
*I *4520:RESET_B I *D sky130_fd_sc_hd__dfrtp_2
*I *4528:RESET_B I *D sky130_fd_sc_hd__dfrtp_2
*I *4781:A I *D sky130_fd_sc_hd__clkdlybuf4s25_1
*I *4784:X O *D sky130_fd_sc_hd__clkdlybuf4s25_1
*CAP
1 *4783:A 0.000180853
2 *4782:A 7.64682e-05
3 *4552:RESET_B 0.000879608
4 *4520:RESET_B 0.000234891
5 *4528:RESET_B 0.00112685
6 *4781:A 0.000231168
7 *4784:X 0
8 *1042:61 0.000683663
9 *1042:6 0.000669865
10 *4004:A0 *1042:61 0.000134931
11 *4012:S *4781:A 0
12 *4015:S *4528:RESET_B 8.90879e-05
13 *4015:S *4781:A 4.18603e-06
14 *4025:A1 *4520:RESET_B 7.98735e-05
15 *4062:A0 *4552:RESET_B 0.000608261
16 *4174:C1 *4528:RESET_B 0
17 *4174:C1 *4781:A 0
18 *4237:A2 *1042:61 4.64604e-05
19 *4237:A3 *1042:61 0
20 *4237:B1 *1042:61 5.5345e-05
21 *4336:A2 *1042:61 0.000293442
22 *4484:S *4781:A 0.000124895
23 *4502:RESET_B *1042:61 0.000556536
24 *4516:D *4528:RESET_B 0
25 *4528:D *4520:RESET_B 0.000114789
26 *4936:A *1042:61 8.5225e-05
27 *5036:A *4781:A 2.97004e-06
28 *273:26 *4782:A 0.00015806
29 *273:26 *4783:A 0.000448507
30 *274:50 *1042:61 2.46073e-05
31 *275:42 *4552:RESET_B 0.00018471
32 *275:61 *1042:61 4.47897e-05
33 *619:104 *4520:RESET_B 0.000116127
34 *619:138 *4528:RESET_B 0
35 *619:142 *4528:RESET_B 0
36 *621:20 *1042:61 4.11729e-05
37 *668:10 *4528:RESET_B 4.82919e-05
38 *958:35 *1042:61 0.000837685
39 *982:162 *4552:RESET_B 0.000107335
40 *982:162 *1042:61 0.000466264
41 *982:174 *4552:RESET_B 0.000167535
42 *1009:79 *4552:RESET_B 0
43 *1016:39 *4528:RESET_B 0.000311288
44 *1016:51 *4552:RESET_B 6.17392e-05
45 *1024:26 *4528:RESET_B 0
46 *1037:8 *4552:RESET_B 3.63701e-06
47 *1038:10 *4783:A 4.92062e-05
48 *1039:16 *4528:RESET_B 0.000198939
49 *1039:22 *4528:RESET_B 0.000226633
50 *1039:26 *4552:RESET_B 2.95708e-05
51 *1039:49 *4552:RESET_B 0.000394567
*RES
1 *4784:X *1042:6 3.6 
2 *1042:6 *4781:A 7.65 
3 *1042:6 *4528:RESET_B 11.5025 
4 *4528:RESET_B *4520:RESET_B 4.485 
5 *4528:RESET_B *4552:RESET_B 16.345 
6 *4552:RESET_B *1042:61 20.5675 
7 *1042:61 *4782:A 3.085 
8 *1042:61 *4783:A 5.845 
*END

*D_NET *1043 0.0149662
*CONN
*I *4784:A I *D sky130_fd_sc_hd__clkdlybuf4s25_1
*I *4778:A I *D sky130_fd_sc_hd__clkdlybuf4s25_1
*I *4780:A I *D sky130_fd_sc_hd__clkdlybuf4s25_1
*I *4779:A I *D sky130_fd_sc_hd__clkdlybuf4s25_1
*I *4777:A I *D sky130_fd_sc_hd__clkdlybuf4s25_1
*I *4785:X O *D sky130_fd_sc_hd__clkdlybuf4s25_1
*CAP
1 *4784:A 0.000291395
2 *4778:A 0
3 *4780:A 0
4 *4779:A 0.000110968
5 *4777:A 0.000906967
6 *4785:X 2.21537e-05
7 *1043:59 0.00122062
8 *1043:26 0.0023321
9 *1043:20 0.00231015
10 *1043:6 0.00230821
11 *4777:A *4267:A 0.000567731
12 *1043:26 *4268:A1 0.000178244
13 *3987:A1 *1043:20 3.95549e-05
14 *4005:S *4779:A 0
15 *4015:A0 *4784:A 0.000139561
16 *4015:S *4784:A 2.45182e-05
17 *4022:A0 *1043:59 0.000173964
18 *4035:A1 *4784:A 0
19 *4035:A1 *1043:20 9.00872e-05
20 *4050:A1 *1043:59 9.54399e-05
21 *4070:A1 *1043:20 6.19997e-05
22 *4070:A1 *1043:26 0.000203178
23 *4128:C *1043:59 5.43298e-05
24 *4199:A1 *1043:59 0.000109388
25 *4199:A2 *1043:59 1.97849e-05
26 *4203:A2 *1043:59 7.37496e-05
27 *4272:D1 *4777:A 8.83862e-05
28 *4273:B1 *1043:59 0
29 *4285:A2 *4779:A 8.47629e-05
30 *4311:B1 *4777:A 2.69217e-05
31 *4332:C *4784:A 0.000149837
32 *4332:C *1043:6 8.23457e-05
33 *4332:C *1043:20 2.92496e-05
34 *4333:A1 *1043:20 5.9276e-05
35 *4334:A_N *1043:20 0.000122325
36 *4334:D *1043:20 0.000442997
37 *4501:CLK *1043:59 0.000210144
38 *4504:RESET_B *1043:20 2.75229e-05
39 *4517:RESET_B *1043:59 0.000157602
40 *4532:D *1043:20 0
41 *4536:CLK *1043:26 8.33066e-06
42 *4536:CLK *1043:59 0.000324464
43 *4541:D *1043:59 4.91189e-05
44 *4689:CLK *1043:59 0.000171616
45 *4835:A *4784:A 3.86607e-05
46 *4870:A *4779:A 4.43871e-06
47 *282:66 *1043:59 2.30415e-05
48 *619:138 *4784:A 1.53032e-05
49 *619:142 *4784:A 4.4102e-05
50 *928:10 *1043:26 0
51 *985:66 *4784:A 2.20732e-05
52 *985:66 *1043:20 0.000165166
53 *985:99 *4777:A 0.000457196
54 *991:62 *1043:59 0
55 *1007:123 *1043:59 4.65643e-05
56 *1008:17 *1043:59 0
57 *1008:19 *1043:59 0
58 *1008:27 *1043:59 0
59 *1014:102 *1043:59 0.000201141
60 *1016:39 *4784:A 0.00014305
61 *1016:39 *1043:6 8.40269e-05
62 *1030:8 *4777:A 1.42674e-05
63 *1031:8 *4777:A 8.41384e-05
64 *1036:14 *4784:A 0
65 *1039:102 *1043:20 0.000253987
*RES
1 *4785:X *1043:6 2.395 
2 *1043:6 *1043:20 30.115 
3 *1043:20 *1043:26 8.27 
4 *1043:26 *4777:A 21.21 
5 *1043:26 *1043:59 25.7 
6 *1043:59 *4779:A 8 
7 *1043:59 *4780:A 1.6 
8 *1043:20 *4778:A 1.6 
9 *1043:6 *4784:A 12.455 
*END

*D_NET *1044 0.00247412
*CONN
*I *5054:A I *D sky130_fd_sc_hd__clkbuf_4
*I *4513:RESET_B I *D sky130_fd_sc_hd__dfrtp_2
*I *4786:X O *D sky130_fd_sc_hd__clkdlybuf4s25_1
*CAP
1 *5054:A 0.000184544
2 *4513:RESET_B 0.000225209
3 *4786:X 0.000409753
4 *4513:RESET_B *4686:RESET_B 0.000145376
5 *4513:RESET_B *1046:31 5.73362e-05
6 *4513:RESET_B *1046:43 0.000100787
7 *5054:A *4505:RESET_B 0.000131017
8 *5054:A *1049:23 2.10841e-05
9 *4016:A0 *5054:A 0.00012972
10 *4367:B1 *5054:A 5.96097e-05
11 *4556:CLK *4513:RESET_B 0.000118504
12 *4911:A *5054:A 9.27427e-05
13 *268:87 *4513:RESET_B 7.25617e-05
14 *268:101 *4513:RESET_B 0.000192674
15 *653:10 *5054:A 1.64067e-05
16 *669:12 *4513:RESET_B 0.000136679
17 *847:22 *5054:A 0.000380118
*RES
1 *4786:X *4513:RESET_B 13.61 
2 *4786:X *5054:A 12.9 
*END

*D_NET *1045 0.00937861
*CONN
*I *4524:SET_B I *D sky130_fd_sc_hd__dfstp_2
*I *4540:SET_B I *D sky130_fd_sc_hd__dfstp_2
*I *4508:RESET_B I *D sky130_fd_sc_hd__dfrtp_2
*I *4548:RESET_B I *D sky130_fd_sc_hd__dfrtp_2
*I *4500:RESET_B I *D sky130_fd_sc_hd__dfrtp_2
*I *4532:SET_B I *D sky130_fd_sc_hd__dfstp_2
*I *4516:SET_B I *D sky130_fd_sc_hd__dfstp_2
*I *4492:RESET_B I *D sky130_fd_sc_hd__dfrtp_2
*I *4505:RESET_B I *D sky130_fd_sc_hd__dfrtp_2
*I *5054:X O *D sky130_fd_sc_hd__clkbuf_4
*CAP
1 *4524:SET_B 7.88293e-05
2 *4540:SET_B 0
3 *4508:RESET_B 0.000207073
4 *4548:RESET_B 7.98333e-05
5 *4500:RESET_B 0.000267995
6 *4532:SET_B 8.45847e-05
7 *4516:SET_B 9.54093e-05
8 *4492:RESET_B 0.00109422
9 *4505:RESET_B 0.00141823
10 *5054:X 0.000609056
11 *1045:106 0.000117654
12 *1045:65 0.000145507
13 *1045:53 0.000525295
14 *1045:49 0.000755934
15 *3993:A0 *4492:RESET_B 5.30673e-05
16 *3993:A1 *4548:RESET_B 2.75145e-05
17 *4016:A0 *4505:RESET_B 2.25299e-05
18 *4049:A0 *4524:SET_B 0.00013534
19 *4049:A0 *1045:106 6.47516e-05
20 *4173:A2 *1045:53 8.91544e-05
21 *4175:B_N *4516:SET_B 4.76365e-05
22 *4175:C *4508:RESET_B 0
23 *4175:D *4516:SET_B 7.94826e-05
24 *4177:A2 *4492:RESET_B 0
25 *4177:B1 *4508:RESET_B 0
26 *4177:C1 *4508:RESET_B 5.85071e-05
27 *4178:A3 *1045:53 0
28 *4178:B2 *1045:49 0.000131401
29 *4368:B1 *4505:RESET_B 0
30 *4369:B2 *4505:RESET_B 0
31 *4500:CLK *4532:SET_B 0.000154455
32 *4500:D *1045:53 0.000152724
33 *4718:A *4508:RESET_B 0
34 *4785:A *4500:RESET_B 0.000217975
35 *4785:A *4532:SET_B 0.000341194
36 *4806:A *4492:RESET_B 9.66106e-05
37 *4817:A *4508:RESET_B 0
38 *4938:A *4505:RESET_B 7.6664e-05
39 *4986:A *1045:49 8.53113e-06
40 *4986:A *1045:53 0.000159957
41 *5054:A *4505:RESET_B 0.000131017
42 *272:149 *4492:RESET_B 4.18603e-06
43 *612:12 *4516:SET_B 0
44 *612:12 *1045:53 0
45 *619:82 *4508:RESET_B 0.000162332
46 *621:93 *1045:49 3.64998e-06
47 *621:106 *1045:49 0.000129697
48 *693:10 *4505:RESET_B 8.08153e-06
49 *947:34 *4492:RESET_B 9.76833e-05
50 *947:34 *4505:RESET_B 0.00011627
51 *985:66 *4500:RESET_B 6.98363e-05
52 *985:66 *4532:SET_B 1.74678e-05
53 *986:65 *4505:RESET_B 0.000163289
54 *1009:45 *1045:49 7.53115e-05
55 *1009:45 *1045:53 0.000329576
56 *1009:58 *4516:SET_B 5.41111e-05
57 *1009:58 *1045:53 0.000264562
58 *1016:12 *4524:SET_B 0.000238262
59 *1016:12 *1045:106 0.000116158
*RES
1 *5054:X *4505:RESET_B 17.1125 
2 *4505:RESET_B *4492:RESET_B 14.2675 
3 *4492:RESET_B *1045:49 6.9125 
4 *1045:49 *1045:53 11.01 
5 *1045:53 *4516:SET_B 4.1225 
6 *1045:53 *1045:65 2 
7 *1045:65 *4532:SET_B 3.1575 
8 *1045:65 *4500:RESET_B 2.1225 
9 *1045:49 *4548:RESET_B 2.7575 
10 *4500:RESET_B *4508:RESET_B 8.185 
11 *4548:RESET_B *1045:106 3.38 
12 *1045:106 *4540:SET_B 2 
13 *1045:106 *4524:SET_B 4.91 
*END

*D_NET *1046 0.0044916
*CONN
*I *4545:RESET_B I *D sky130_fd_sc_hd__dfrtp_2
*I *4553:RESET_B I *D sky130_fd_sc_hd__dfrtp_2
*I *4537:RESET_B I *D sky130_fd_sc_hd__dfrtp_2
*I *4529:RESET_B I *D sky130_fd_sc_hd__dfrtp_2
*I *4686:RESET_B I *D sky130_fd_sc_hd__dfrtp_2
*I *4556:RESET_B I *D sky130_fd_sc_hd__dfrtp_2
*I *4787:X O *D sky130_fd_sc_hd__clkdlybuf4s25_1
*CAP
1 *4545:RESET_B 0.000193407
2 *4553:RESET_B 0
3 *4537:RESET_B 0
4 *4529:RESET_B 1.99313e-05
5 *4686:RESET_B 0.000254475
6 *4556:RESET_B 0.000291258
7 *4787:X 0.000227375
8 *1046:50 0.000492622
9 *1046:43 0.000621234
10 *1046:31 0.000397822
11 *1046:20 0.000374231
12 *1046:43 *1049:27 0
13 *1046:50 *1049:27 0
14 *4367:A2 *1046:43 6.57372e-05
15 *4367:B1 *1046:43 9.18556e-05
16 *4513:RESET_B *4686:RESET_B 0.000145376
17 *4513:RESET_B *1046:31 5.73362e-05
18 *4513:RESET_B *1046:43 0.000100787
19 *4521:CLK *4545:RESET_B 6.81421e-05
20 *4556:CLK *4686:RESET_B 0
21 *4556:D *1046:20 9.31061e-05
22 *4785:A *4529:RESET_B 7.94826e-05
23 *268:87 *4545:RESET_B 8.93282e-05
24 *268:87 *1046:43 0
25 *268:87 *1046:50 0.000184897
26 *268:101 *4686:RESET_B 0
27 *280:77 *4545:RESET_B 0
28 *280:77 *1046:50 0
29 *645:12 *4545:RESET_B 1.43521e-05
30 *645:12 *1046:50 3.59997e-05
31 *653:10 *4686:RESET_B 0
32 *653:10 *1046:31 0
33 *669:12 *1046:43 0.000135382
34 *685:10 *4545:RESET_B 3.2071e-05
35 *985:34 *4556:RESET_B 0.000281878
36 *985:34 *1046:20 4.4133e-05
37 *985:34 *1046:31 3.39064e-05
38 *985:34 *1046:43 2.03578e-05
39 *985:66 *4529:RESET_B 4.51129e-05
*RES
1 *4787:X *4556:RESET_B 6.4975 
2 *4556:RESET_B *1046:20 3.4325 
3 *1046:20 *4686:RESET_B 6.89 
4 *1046:20 *1046:31 1.38 
5 *1046:31 *4529:RESET_B 2.7425 
6 *1046:31 *1046:43 7.185 
7 *1046:43 *4537:RESET_B 2 
8 *1046:43 *1046:50 5.715 
9 *1046:50 *4553:RESET_B 2 
10 *1046:50 *4545:RESET_B 5.9975 
*END

*D_NET *1047 0.00239984
*CONN
*I *5055:A I *D sky130_fd_sc_hd__clkbuf_4
*I *4523:RESET_B I *D sky130_fd_sc_hd__dfrtp_2
*I *4788:X O *D sky130_fd_sc_hd__clkdlybuf4s25_1
*CAP
1 *5055:A 0.000313175
2 *4523:RESET_B 0
3 *4788:X 0.000241007
4 *1047:10 0.000554182
5 *5055:A *4507:SET_B 0
6 *4704:A *5055:A 0.000124895
7 *429:6 *1047:10 0.000200615
8 *947:10 *5055:A 0.000445791
9 *947:10 *1047:10 0.000338982
10 *984:42 *5055:A 4.33042e-05
11 *984:42 *1047:10 0.00013492
12 *984:46 *1047:10 2.97004e-06
*RES
1 *4788:X *1047:10 9.36 
2 *1047:10 *4523:RESET_B 2 
3 *1047:10 *5055:A 10.2 
*END

*D_NET *1048 0.0115495
*CONN
*I *4538:SET_B I *D sky130_fd_sc_hd__dfstp_2
*I *4490:SET_B I *D sky130_fd_sc_hd__dfstp_2
*I *4514:RESET_B I *D sky130_fd_sc_hd__dfrtp_2
*I *4522:SET_B I *D sky130_fd_sc_hd__dfstp_2
*I *4546:RESET_B I *D sky130_fd_sc_hd__dfrtp_2
*I *4530:RESET_B I *D sky130_fd_sc_hd__dfrtp_2
*I *4507:SET_B I *D sky130_fd_sc_hd__dfstp_2
*I *4498:RESET_B I *D sky130_fd_sc_hd__dfrtp_2
*I *4506:SET_B I *D sky130_fd_sc_hd__dfstp_2
*I *5055:X O *D sky130_fd_sc_hd__clkbuf_4
*CAP
1 *4538:SET_B 0.000220487
2 *4490:SET_B 4.72864e-05
3 *4514:RESET_B 0.000451919
4 *4522:SET_B 6.87635e-05
5 *4546:RESET_B 4.21807e-05
6 *4530:RESET_B 0.000284223
7 *4507:SET_B 0.000375832
8 *4498:RESET_B 0.000590173
9 *4506:SET_B 0.000295943
10 *5055:X 0
11 *1048:107 0.000394333
12 *1048:58 0.000621353
13 *1048:50 0.000508235
14 *1048:16 0.00145923
15 *1048:4 0.00141883
16 *1048:16 *4759:A 0.000205363
17 *1048:16 *5000:A 0.000609187
18 *3991:A0 *1048:107 0
19 *4008:A_N *1048:16 4.66826e-05
20 *4008:C *1048:16 0.000215528
21 *4010:A0 *4507:SET_B 5.95509e-05
22 *4133:B2 *1048:107 5.50989e-05
23 *4133:C1 *4490:SET_B 0.000115177
24 *4133:C1 *1048:107 3.09233e-05
25 *4135:C *1048:16 0.000235573
26 *4140:A1 *4506:SET_B 0
27 *4140:A1 *4522:SET_B 1.26626e-05
28 *4140:A2 *4506:SET_B 3.33161e-05
29 *4140:C1 *4506:SET_B 2.15594e-05
30 *4141:B2 *1048:58 0.000261115
31 *4155:A1 *4507:SET_B 0.000117005
32 *4498:D *4498:RESET_B 0
33 *4514:CLK *4514:RESET_B 2.49909e-05
34 *4514:D *4514:RESET_B 2.75229e-05
35 *4522:D *4506:SET_B 0.000117825
36 *4522:D *4522:SET_B 0
37 *4522:D *1048:50 0.000119066
38 *4523:D *4507:SET_B 9.17261e-05
39 *4546:CLK *4530:RESET_B 9.43599e-05
40 *4546:CLK *1048:107 0
41 *4546:D *1048:58 7.21296e-06
42 *4704:A *4507:SET_B 0.000132137
43 *4704:A *1048:16 7.10578e-05
44 *4765:A *1048:58 0.000137571
45 *4939:A *4530:RESET_B 0.000274659
46 *4939:A *1048:58 0.000289011
47 *5055:A *4507:SET_B 0
48 *268:32 *4506:SET_B 2.95708e-05
49 *268:32 *1048:50 0.000119066
50 *268:32 *1048:58 0
51 *270:12 *4498:RESET_B 0
52 *270:12 *4514:RESET_B 8.85425e-05
53 *270:18 *4490:SET_B 4.19867e-05
54 *270:18 *4506:SET_B 0
55 *270:18 *1048:107 8.47372e-05
56 *275:30 *4530:RESET_B 5.05521e-05
57 *275:30 *4546:RESET_B 4.06192e-05
58 *625:51 *4498:RESET_B 2.88008e-05
59 *625:51 *4506:SET_B 0.000135454
60 *625:51 *4514:RESET_B 4.37107e-05
61 *646:8 *4522:SET_B 4.61256e-05
62 *646:8 *1048:58 3.59531e-06
63 *654:8 *4514:RESET_B 1.32907e-06
64 *678:8 *4538:SET_B 2.01259e-05
65 *902:30 *4498:RESET_B 0
66 *984:42 *4507:SET_B 0.000378194
67 *1009:24 *4506:SET_B 9.54399e-05
68 *1009:24 *1048:16 0.000111285
69 *1018:16 *1048:58 4.57357e-05
70 *1024:10 *4498:RESET_B 0
71 *1024:10 *4506:SET_B 0
72 *1024:20 *4506:SET_B 0
*RES
1 *5055:X *1048:4 1.6 
2 *1048:4 *1048:16 18.9425 
3 *1048:16 *4506:SET_B 8.0975 
4 *1048:16 *4498:RESET_B 4.2725 
5 *1048:4 *4507:SET_B 12.4075 
6 *4506:SET_B *1048:50 3.0875 
7 *1048:50 *1048:58 11.165 
8 *1048:58 *4530:RESET_B 3.8475 
9 *1048:58 *4546:RESET_B 0.7425 
10 *1048:50 *4522:SET_B 3.38 
11 *4498:RESET_B *4514:RESET_B 6.795 
12 *4530:RESET_B *1048:107 5.1575 
13 *1048:107 *4490:SET_B 3.38 
14 *1048:107 *4538:SET_B 4.8125 
*END

*D_NET *1049 0.00802543
*CONN
*I *4788:A I *D sky130_fd_sc_hd__clkdlybuf4s25_1
*I *4531:SET_B I *D sky130_fd_sc_hd__dfstp_2
*I *4786:A I *D sky130_fd_sc_hd__clkdlybuf4s25_1
*I *4547:RESET_B I *D sky130_fd_sc_hd__dfrtp_2
*I *4539:SET_B I *D sky130_fd_sc_hd__dfstp_2
*I *4787:A I *D sky130_fd_sc_hd__clkdlybuf4s25_1
*I *4789:X O *D sky130_fd_sc_hd__clkdlybuf4s25_1
*CAP
1 *4788:A 0.000584261
2 *4531:SET_B 9.39092e-05
3 *4786:A 0
4 *4547:RESET_B 0.000831142
5 *4539:SET_B 0.000212041
6 *4787:A 6.85129e-05
7 *4789:X 0
8 *1049:27 0.00101422
9 *1049:23 0.000973105
10 *1049:6 0.000392415
11 *4787:A *1058:12 4.05358e-05
12 *1049:23 *1058:12 0.000102158
13 *4007:A0 *1049:27 3.61163e-05
14 *4016:A0 *1049:27 3.3625e-05
15 *4039:A1 *4531:SET_B 2.65814e-06
16 *4048:A1 *4531:SET_B 0.000111054
17 *4048:A1 *4539:SET_B 3.45588e-05
18 *4066:A0 *4787:A 1.65105e-05
19 *4153:A1 *4539:SET_B 8.49205e-05
20 *4153:A1 *1049:27 6.11008e-05
21 *4153:B2 *4547:RESET_B 0
22 *4153:B2 *4788:A 0
23 *4158:A2 *4547:RESET_B 0
24 *4158:A2 *4788:A 0
25 *4158:A2 *1049:27 0
26 *4367:B1 *1049:23 0.000451581
27 *4368:B1 *1049:23 0.000175721
28 *4369:A2 *1049:27 0
29 *4491:CLK *4788:A 4.24575e-05
30 *4704:A *4531:SET_B 0.000111054
31 *4704:A *4788:A 0
32 *4704:A *1049:27 0
33 *4911:A *1049:23 0.000267546
34 *4911:A *1049:27 9.12494e-06
35 *5017:A *4788:A 0
36 *5054:A *1049:23 2.10841e-05
37 *276:61 *1049:27 0.000344644
38 *280:77 *1049:27 0.000347786
39 *289:18 *4531:SET_B 0.000116497
40 *429:6 *4788:A 0.000352161
41 *687:10 *4788:A 0
42 *847:22 *1049:23 5.61284e-05
43 *947:10 *4788:A 0.000119285
44 *947:18 *4788:A 0.000109441
45 *986:59 *1049:27 3.07172e-05
46 *986:65 *1049:27 0.000777362
47 *1021:70 *4788:A 0
48 *1046:43 *1049:27 0
49 *1046:50 *1049:27 0
*RES
1 *4789:X *1049:6 3.6 
2 *1049:6 *4787:A 4.98 
3 *1049:6 *1049:23 11.045 
4 *1049:23 *1049:27 18.425 
5 *1049:27 *4539:SET_B 5.5175 
6 *1049:27 *4547:RESET_B 4.655 
7 *1049:23 *4786:A 1.6 
8 *4547:RESET_B *4531:SET_B 6.4675 
9 *4547:RESET_B *4788:A 17.2175 
*END

*D_NET *1050 0.003399
*CONN
*I *3985:B2 I *D sky130_fd_sc_hd__o22a_2
*I *3969:B I *D sky130_fd_sc_hd__nor3_2
*I *3979:B I *D sky130_fd_sc_hd__nand2_2
*I *4677:Q O *D sky130_fd_sc_hd__dfstp_2
*CAP
1 *3985:B2 0
2 *3969:B 2.32397e-05
3 *3979:B 0.000297851
4 *4677:Q 0.00041451
5 *1050:22 0.000420399
6 *1050:14 0.000513818
7 *3969:A *1050:22 0.000275553
8 *3969:C *3969:B 3.09233e-05
9 *3969:C *3979:B 0.000116151
10 *3985:A2 *3969:B 1.34361e-05
11 *3985:A2 *1050:22 0.000428764
12 *3985:B1 *1050:14 5.16348e-05
13 *3985:B1 *1050:22 9.50342e-06
14 *4151:S *3979:B 0.000236355
15 *4618:CLK *1050:14 1.7902e-05
16 *4618:CLK *1050:22 2.97561e-05
17 *4619:RESET_B *3979:B 0
18 *4683:D *1050:14 0.000169064
19 *4834:A *1050:22 5.03202e-05
20 *5021:A *3979:B 3.70572e-05
21 *248:12 *1050:14 2.56077e-05
22 *252:10 *1050:14 6.38291e-05
23 *254:14 *3979:B 9.07342e-05
24 *627:146 *1050:14 6.58423e-05
25 *711:79 *3969:B 0
26 *711:79 *3979:B 0
27 *711:79 *1050:14 0
28 *711:79 *1050:22 0
29 *711:89 *1050:14 1.67513e-05
*RES
1 *4677:Q *1050:14 10.02 
2 *1050:14 *1050:22 8.515 
3 *1050:22 *3979:B 10.065 
4 *1050:22 *3969:B 4.215 
5 *1050:14 *3985:B2 3.6 
*END

*D_NET *1051 0.00241862
*CONN
*I *4893:A I *D sky130_fd_sc_hd__dlygate4sd3_1
*I *3977:B I *D sky130_fd_sc_hd__nand2_2
*I *3968:A I *D sky130_fd_sc_hd__or4_2
*I *4678:Q O *D sky130_fd_sc_hd__dfrtp_2
*CAP
1 *4893:A 0.000126359
2 *3977:B 0
3 *3968:A 0.00018683
4 *4678:Q 8.10783e-05
5 *1051:25 0.000229978
6 *1051:8 0.000371528
7 *3968:A *3968:B 7.47215e-05
8 *3968:A *3968:C 6.1452e-05
9 *3976:A1 *3968:A 4.66108e-05
10 *3976:A2 *3968:A 2.54523e-05
11 *3977:A *1051:25 0.000210617
12 *3980:A1 *3968:A 0.000136877
13 *3984:A1 *4893:A 5.30673e-05
14 *3984:A1 *1051:25 2.75229e-05
15 *3984:A2 *1051:25 6.23206e-05
16 *4678:RESET_B *3968:A 0.000162311
17 *4678:RESET_B *1051:25 6.38291e-05
18 *4680:RESET_B *3968:A 4.82863e-05
19 *4682:RESET_B *3968:A 8.68724e-05
20 *260:55 *4893:A 9.70988e-05
21 *694:76 *1051:8 4.82919e-05
22 *694:97 *1051:8 7.66083e-05
23 *694:99 *3968:A 0
24 *712:51 *3968:A 0.000140905
*RES
1 *4678:Q *1051:8 4.74 
2 *1051:8 *3968:A 9.765 
3 *1051:8 *1051:25 5.105 
4 *1051:25 *3977:B 1.6 
5 *1051:25 *4893:A 4.465 
*END

*D_NET *1052 0.00201594
*CONN
*I *4888:A I *D sky130_fd_sc_hd__dlygate4sd3_1
*I *3975:B I *D sky130_fd_sc_hd__nand2_2
*I *3968:C I *D sky130_fd_sc_hd__or4_2
*I *4679:Q O *D sky130_fd_sc_hd__dfrtp_2
*CAP
1 *4888:A 0.000112006
2 *3975:B 0.000104069
3 *3968:C 0.00018708
4 *4679:Q 0
5 *1052:21 0.000252789
6 *1052:4 0.000223793
7 *3968:C *3968:D 5.16418e-05
8 *3968:C *1055:10 0.000132096
9 *3968:A *3968:C 6.1452e-05
10 *3975:A *3975:B 0
11 *3976:A1 *3968:C 4.66108e-05
12 *3982:A1 *3968:C 9.23967e-05
13 *3982:A1 *1052:21 4.47209e-05
14 *3984:B1_N *3968:C 0.000113255
15 *3984:B1_N *3975:B 2.86623e-05
16 *3984:B1_N *1052:21 5.83121e-06
17 *4680:RESET_B *3968:C 4.82919e-05
18 *4682:RESET_B *3968:C 0.000229897
19 *259:8 *3975:B 0.000118527
20 *259:29 *4888:A 8.31173e-05
21 *694:99 *3968:C 7.96996e-05
22 *694:99 *3975:B 0
*RES
1 *4679:Q *1052:4 1.6 
2 *1052:4 *3968:C 12.32 
3 *1052:4 *1052:21 0.795 
4 *1052:21 *3975:B 7.745 
5 *1052:21 *4888:A 3.775 
*END

*D_NET *1053 0.00135839
*CONN
*I *3968:B I *D sky130_fd_sc_hd__or4_2
*I *3981:B I *D sky130_fd_sc_hd__nand2_2
*I *5008:A I *D sky130_fd_sc_hd__dlygate4sd3_1
*I *4680:Q O *D sky130_fd_sc_hd__dfrtp_2
*CAP
1 *3968:B 7.99239e-05
2 *3981:B 0.000104886
3 *5008:A 3.24186e-05
4 *4680:Q 1.32869e-05
5 *1053:20 0.000203941
6 *3968:A *3968:B 7.47215e-05
7 *3980:A1 *3968:B 5.46877e-05
8 *3981:A *3981:B 4.82863e-05
9 *4466:S *3981:B 0
10 *4680:RESET_B *3968:B 1.32017e-05
11 *4680:RESET_B *3981:B 4.18603e-06
12 *4680:RESET_B *5008:A 4.99619e-05
13 *4682:RESET_B *3968:B 0.000219751
14 *4682:RESET_B *3981:B 0.000202095
15 *262:28 *3981:B 2.97561e-05
16 *579:27 *5008:A 2.30292e-05
17 *579:27 *1053:20 8.65905e-05
18 *580:21 *3981:B 3.00381e-05
19 *980:54 *5008:A 5.30673e-05
20 *980:54 *1053:20 3.45588e-05
*RES
1 *4680:Q *5008:A 3.995 
2 *5008:A *1053:20 4.395 
3 *1053:20 *3981:B 6.45 
4 *1053:20 *3968:B 6.255 
*END

*D_NET *1054 0.000216541
*CONN
*I *4833:A I *D sky130_fd_sc_hd__dlygate4sd3_1
*I *4681:Q O *D sky130_fd_sc_hd__dfrtp_2
*CAP
1 *4833:A 2.43048e-05
2 *4681:Q 2.43048e-05
3 *4681:D *4833:A 9.43504e-05
4 *251:10 *4833:A 7.35813e-05
*RES
1 *4681:Q *4833:A 4.34 
*END

*D_NET *1055 0.00127069
*CONN
*I *4997:A I *D sky130_fd_sc_hd__dlygate4sd3_1
*I *3983:B I *D sky130_fd_sc_hd__nand2_2
*I *3968:D I *D sky130_fd_sc_hd__or4_2
*I *4682:Q O *D sky130_fd_sc_hd__dfrtp_2
*CAP
1 *4997:A 0.000185319
2 *3983:B 0.00012728
3 *3968:D 1.65873e-05
4 *4682:Q 3.76639e-05
5 *1055:10 0.000180241
6 *1055:6 0.000259357
7 *3968:C *3968:D 5.16418e-05
8 *3968:C *1055:10 0.000132096
9 *3976:A1 *3968:D 2.92496e-05
10 *3976:A1 *3983:B 4.66108e-05
11 *3976:A1 *1055:10 9.54469e-05
12 *4680:RESET_B *3983:B 7.15461e-05
13 *694:99 *3968:D 7.12228e-06
14 *694:99 *1055:10 2.4997e-05
15 *694:101 *3968:D 5.53249e-06
*RES
1 *4682:Q *1055:6 2.05 
2 *1055:6 *1055:10 3.635 
3 *1055:10 *3968:D 4.215 
4 *1055:10 *3983:B 5.805 
5 *1055:6 *4997:A 4.12 
*END

*D_NET *1056 0.00143984
*CONN
*I *4858:A I *D sky130_fd_sc_hd__dlygate4sd3_1
*I *4147:A1 I *D sky130_fd_sc_hd__a2111o_2
*I *4554:Q O *D sky130_fd_sc_hd__dfrtp_2
*CAP
1 *4858:A 0.000183065
2 *4147:A1 0.000322427
3 *4554:Q 0.000505493
4 *4147:A1 *4144:C 0.000108039
5 *4147:A1 *4759:A 0
6 *4147:A1 *4790:A 4.49328e-05
7 *4144:D *4147:A1 2.66935e-05
8 *724:12 *4147:A1 0.00013264
9 *800:14 *4858:A 2.11084e-05
10 *982:77 *4147:A1 0
11 *1000:24 *4147:A1 0
12 *1013:17 *4147:A1 8.59365e-05
13 *1013:19 *4147:A1 9.50342e-06
*RES
1 *4554:Q *4147:A1 14.64 
2 *4554:Q *4858:A 6.065 
*END

*D_NET *1057 0.00726001
*CONN
*I *4804:A I *D sky130_fd_sc_hd__dlygate4sd3_1
*I *4160:A I *D sky130_fd_sc_hd__and2_2
*I *4555:Q O *D sky130_fd_sc_hd__dfrtp_2
*CAP
1 *4804:A 9.71884e-06
2 *4160:A 0.000506276
3 *4555:Q 0.00123813
4 *1057:28 0.00175412
5 *4160:A *4247:A1 0.000160529
6 *1057:28 *4247:A1 4.43871e-06
7 *1057:28 *1092:10 2.38256e-05
8 *4065:A0 *1057:28 0.000323215
9 *4068:A0 *1057:28 0
10 *4084:A1 *1057:28 0.000271299
11 *4100:A0 *4804:A 4.82919e-05
12 *4100:A1 *1057:28 7.06865e-05
13 *4100:S *4160:A 0.000195948
14 *4124:S *4160:A 3.69868e-05
15 *4242:D *4160:A 0.00028733
16 *4247:A2 *4160:A 0.000671108
17 *4247:C1 *1057:28 0
18 *4582:RESET_B *1057:28 0.000367873
19 *4590:CLK *1057:28 9.43195e-05
20 *4606:D *4160:A 9.47454e-05
21 *4752:A *1057:28 0.000135015
22 *5048:A *1057:28 0.000201508
23 *271:6 *1057:28 0.000153869
24 *613:22 *4160:A 0.000193806
25 *627:80 *4804:A 4.82919e-05
26 *987:24 *4160:A 5.77471e-05
27 *1000:14 *1057:28 8.8266e-05
28 *1001:8 *1057:28 3.86607e-05
29 *1011:80 *4160:A 3.60648e-06
30 *1019:114 *4160:A 0.000180395
*RES
1 *4555:Q *1057:28 29.455 
2 *1057:28 *4160:A 18.18 
3 *1057:28 *4804:A 4.05 
*END

*D_NET *1058 0.00772718
*CONN
*I *4185:A1 I *D sky130_fd_sc_hd__a2111o_2
*I *4902:A I *D sky130_fd_sc_hd__dlygate4sd3_1
*I *4556:Q O *D sky130_fd_sc_hd__dfrtp_2
*CAP
1 *4185:A1 0.00111767
2 *4902:A 0
3 *4556:Q 0.000229006
4 *1058:12 0.00134667
5 *4185:A1 *4909:A 0.000288522
6 *4185:A1 *4917:A 1.38207e-05
7 *4185:A1 *4982:A 4.89395e-05
8 *4185:A1 *1074:10 0.000137462
9 *4066:A0 *1058:12 0.000245953
10 *4074:A0 *4185:A1 0.000345002
11 *4074:A1 *4185:A1 0.0011705
12 *4074:A1 *1058:12 7.38695e-05
13 *4103:A0 *4185:A1 7.16847e-05
14 *4103:A1 *4185:A1 0.000683229
15 *4103:S *4185:A1 0.000235382
16 *4183:A1 *4185:A1 0.000267011
17 *4183:B1 *4185:A1 4.66108e-05
18 *4185:D1 *4185:A1 0.000394699
19 *4368:B1 *1058:12 7.5589e-05
20 *4564:D *4185:A1 4.09096e-05
21 *4572:RESET_B *4185:A1 2.40101e-05
22 *4588:CLK *4185:A1 8.53113e-06
23 *4588:D *4185:A1 3.3625e-05
24 *4787:A *1058:12 4.05358e-05
25 *4996:A *4185:A1 8.52972e-05
26 *722:52 *4185:A1 0.000509612
27 *722:77 *4185:A1 7.76814e-05
28 *938:6 *4185:A1 1.32026e-05
29 *1049:23 *1058:12 0.000102158
*RES
1 *4556:Q *1058:12 11.45 
2 *1058:12 *4902:A 1.6 
3 *1058:12 *4185:A1 39.56 
*END

*D_NET *1059 0.00124576
*CONN
*I *4210:A1 I *D sky130_fd_sc_hd__a221oi_2
*I *4849:A I *D sky130_fd_sc_hd__dlygate4sd3_1
*I *4557:Q O *D sky130_fd_sc_hd__dfrtp_2
*CAP
1 *4210:A1 9.33057e-05
2 *4849:A 0
3 *4557:Q 0.000141787
4 *1059:6 0.000235092
5 *4134:A *4210:A1 0.000180689
6 *4134:B *4210:A1 0.000179015
7 *4210:A2 *4210:A1 8.35106e-05
8 *4210:B1 *4210:A1 1.91597e-05
9 *4210:B1 *1059:6 2.49909e-05
10 *4215:B1 *4210:A1 8.35106e-05
11 *4557:RESET_B *4210:A1 2.49909e-05
12 *4557:RESET_B *1059:6 0.000179713
*RES
1 *4557:Q *1059:6 4.465 
2 *1059:6 *4849:A 1.6 
3 *1059:6 *4210:A1 8.99 
*END

*D_NET *1060 0.00202378
*CONN
*I *4243:A1 I *D sky130_fd_sc_hd__a221o_2
*I *4794:A I *D sky130_fd_sc_hd__dlygate4sd3_1
*I *4558:Q O *D sky130_fd_sc_hd__dfrtp_2
*CAP
1 *4243:A1 0.000155585
2 *4794:A 0
3 *4558:Q 0.000302572
4 *1060:12 0.000458157
5 *4243:A1 *1130:29 0.000119479
6 *1060:12 *1130:29 0.000256469
7 *4243:A2 *4243:A1 5.20437e-05
8 *4248:B1 *4243:A1 0.00012657
9 *4574:CLK *1060:12 6.18754e-05
10 *626:142 *1060:12 0.000200653
11 *729:10 *1060:12 9.91257e-05
12 *999:16 *1060:12 0.000191252
*RES
1 *4558:Q *1060:12 14.96 
2 *1060:12 *4794:A 1.6 
3 *1060:12 *4243:A1 5.17 
*END

*D_NET *1061 0.00619751
*CONN
*I *4069:A0 I *D sky130_fd_sc_hd__mux2_1
*I *4922:A I *D sky130_fd_sc_hd__dlygate4sd3_1
*I *4270:D_N I *D sky130_fd_sc_hd__nor4b_2
*I *4559:Q O *D sky130_fd_sc_hd__dfrtp_2
*CAP
1 *4069:A0 0.000205734
2 *4922:A 6.77252e-05
3 *4270:D_N 0.000575503
4 *4559:Q 0.000392828
5 *1061:10 0.000685005
6 *1061:8 0.00064034
7 *4069:A0 *4798:A 0
8 *4069:A1 *4069:A0 4.99619e-05
9 *4069:S *4069:A0 8.8266e-05
10 *4210:A2 *4069:A0 6.19897e-05
11 *4210:A2 *4270:D_N 0.000315139
12 *4210:A2 *1061:10 0.000131401
13 *4270:B *4270:D_N 7.87887e-05
14 *4272:A2 *4270:D_N 0.000528123
15 *4272:C1 *4270:D_N 0.000121039
16 *4313:B_N *4270:D_N 9.39611e-05
17 *4315:A2 *4270:D_N 0.00058031
18 *4485:A1 *4922:A 0.000159324
19 *4559:CLK *1061:8 1.30905e-05
20 *4559:RESET_B *4069:A0 0.000343907
21 *4693:A *4270:D_N 0.000156284
22 *4944:A *4270:D_N 0.000319167
23 *282:34 *4069:A0 0.000103192
24 *282:34 *4270:D_N 5.7344e-05
25 *282:34 *1061:10 7.70938e-05
26 *1008:35 *4270:D_N 0.000157401
27 *1023:77 *4270:D_N 0.000110161
28 *1023:103 *4270:D_N 8.44308e-05
*RES
1 *4559:Q *1061:8 7.845 
2 *1061:8 *1061:10 1.635 
3 *1061:10 *4270:D_N 23.295 
4 *1061:10 *4922:A 5.085 
5 *1061:8 *4069:A0 9.69 
*END

*D_NET *1062 0.00388448
*CONN
*I *4315:A1 I *D sky130_fd_sc_hd__a2111o_2
*I *4850:A I *D sky130_fd_sc_hd__dlygate4sd3_1
*I *4560:Q O *D sky130_fd_sc_hd__dfrtp_2
*CAP
1 *4315:A1 0.000501193
2 *4850:A 0
3 *4560:Q 0.000858235
4 *1062:12 0.00135943
5 *4315:A1 *4314:A2 0.000127396
6 *4315:A1 *1078:10 2.75229e-05
7 *4315:A2 *4315:A1 4.60123e-05
8 *4560:D *1062:12 0.000131
9 *4560:RESET_B *1062:12 5.23485e-05
10 *4567:D *1062:12 0
11 *4567:RESET_B *1062:12 0
12 *4575:RESET_B *1062:12 1.5186e-05
13 *4583:D *1062:12 0
14 *614:16 *1062:12 0
15 *614:22 *1062:12 0
16 *1031:14 *4315:A1 0.000157913
17 *1031:14 *1062:12 9.50347e-05
18 *1031:43 *4315:A1 0.000280612
19 *1031:53 *4315:A1 0.000232599
*RES
1 *4560:Q *1062:12 16.08 
2 *1062:12 *4850:A 3.6 
3 *1062:12 *4315:A1 15.075 
*END

*D_NET *1063 0.00236122
*CONN
*I *4361:A1 I *D sky130_fd_sc_hd__a221o_2
*I *4796:A I *D sky130_fd_sc_hd__dlygate4sd3_1
*I *4561:Q O *D sky130_fd_sc_hd__dfrtp_2
*CAP
1 *4361:A1 0.000242023
2 *4796:A 0.000142631
3 *4561:Q 9.06189e-05
4 *1063:10 0.000475273
5 *4361:A1 *4360:A1 4.11281e-05
6 *4361:A1 *1071:12 0
7 *4071:A0 *4361:A1 6.52181e-05
8 *4071:A0 *1063:10 0.000120186
9 *4079:A1 *4361:A1 4.11198e-05
10 *4111:A1 *4361:A1 9.05592e-05
11 *4360:A2 *4361:A1 0.000130558
12 *4561:RESET_B *1063:10 8.57024e-05
13 *4564:CLK *4361:A1 2.92496e-05
14 *4564:CLK *1063:10 0.000116853
15 *4569:CLK *4796:A 4.66108e-05
16 *618:108 *4361:A1 0.000293768
17 *618:110 *4361:A1 0.000349719
*RES
1 *4561:Q *1063:10 5.775 
2 *1063:10 *4796:A 5.775 
3 *1063:10 *4361:A1 11.61 
*END

*D_NET *1064 0.000881259
*CONN
*I *4790:A I *D sky130_fd_sc_hd__dlygate4sd3_1
*I *4144:C I *D sky130_fd_sc_hd__and4bb_2
*I *4562:Q O *D sky130_fd_sc_hd__dfrtp_2
*CAP
1 *4790:A 4.42118e-05
2 *4144:C 0.000162594
3 *4562:Q 4.43494e-05
4 *1064:8 0.000251155
5 *4144:C *4759:A 4.27658e-05
6 *4790:A *4759:A 4.70343e-05
7 *4144:B_N *4144:C 4.66108e-05
8 *4147:A1 *4144:C 0.000108039
9 *4147:A1 *4790:A 4.49328e-05
10 *1013:6 *4144:C 8.65961e-05
11 *1021:46 *4144:C 2.97004e-06
*RES
1 *4562:Q *1064:8 4.05 
2 *1064:8 *4144:C 7.65 
3 *1064:8 *4790:A 4.98 
*END

*D_NET *1065 0.00379551
*CONN
*I *4081:A1 I *D sky130_fd_sc_hd__mux2_1
*I *4162:C I *D sky130_fd_sc_hd__and4bb_2
*I *4073:A0 I *D sky130_fd_sc_hd__mux2_1
*I *4563:Q O *D sky130_fd_sc_hd__dfrtp_2
*CAP
1 *4081:A1 0.000280515
2 *4162:C 0.000151442
3 *4073:A0 0.000349186
4 *4563:Q 8.62325e-05
5 *1065:14 0.000622414
6 *1065:10 0.000488534
7 *4081:A1 *4164:C 8.65905e-05
8 *4073:A1 *4073:A0 4.66108e-05
9 *4073:S *4073:A0 2.49909e-05
10 *4164:A_N *1065:14 0.000221366
11 *4164:D *4081:A1 9.79963e-05
12 *4164:D *1065:14 0.000153299
13 *4166:A *4073:A0 0.000210328
14 *4166:A *4162:C 4.66108e-05
15 *4166:C *4162:C 2.67275e-05
16 *4571:RESET_B *1065:10 4.75576e-05
17 *4571:RESET_B *1065:14 2.4997e-05
18 *4579:D *1065:10 8.35683e-05
19 *4579:D *1065:14 0.00022921
20 *313:10 *4073:A0 6.68963e-05
21 *1005:16 *4081:A1 2.65814e-06
22 *1005:36 *4081:A1 0.000216441
23 *1020:26 *1065:14 5.16418e-05
24 *1027:26 *1065:14 0.000179701
*RES
1 *4563:Q *1065:10 5.175 
2 *1065:10 *1065:14 7.205 
3 *1065:14 *4073:A0 7 
4 *1065:14 *4162:C 3.43 
5 *1065:10 *4081:A1 8.895 
*END

*D_NET *1066 0.0046965
*CONN
*I *4184:A1 I *D sky130_fd_sc_hd__a22o_2
*I *4909:A I *D sky130_fd_sc_hd__dlygate4sd3_1
*I *4564:Q O *D sky130_fd_sc_hd__dfrtp_2
*CAP
1 *4184:A1 0.000295413
2 *4909:A 0.000802957
3 *4564:Q 0.000235152
4 *1066:10 0.00133352
5 *4106:S *4184:A1 4.23878e-05
6 *4106:S *1066:10 3.51628e-05
7 *4183:A1 *4184:A1 0.000499986
8 *4183:A1 *1066:10 0.000118877
9 *4184:A2 *4184:A1 1.44262e-05
10 *4185:A1 *4909:A 0.000288522
11 *4564:RESET_B *1066:10 4.99619e-05
12 *4572:D *4909:A 4.66108e-05
13 *4572:RESET_B *1066:10 0.000207186
14 *4580:RESET_B *1066:10 7.23602e-05
15 *4588:CLK *4909:A 5.53389e-05
16 *4588:D *4909:A 0.000118877
17 *4609:RESET_B *1066:10 3.18137e-05
18 *330:10 *4184:A1 1.86304e-05
19 *618:134 *4909:A 0.000173302
20 *699:31 *1066:10 0.000107162
21 *998:63 *4184:A1 0.00014885
*RES
1 *4564:Q *1066:10 10.275 
2 *1066:10 *4909:A 18.775 
3 *1066:10 *4184:A1 10.98 
*END

*D_NET *1067 0.00239186
*CONN
*I *4210:B2 I *D sky130_fd_sc_hd__a221oi_2
*I *4083:A1 I *D sky130_fd_sc_hd__mux2_1
*I *5014:A I *D sky130_fd_sc_hd__dlygate4sd3_1
*I *4565:Q O *D sky130_fd_sc_hd__dfrtp_2
*CAP
1 *4210:B2 7.86447e-05
2 *4083:A1 0.000251231
3 *5014:A 8.02557e-05
4 *4565:Q 0.000144233
5 *1067:16 0.000625148
6 *1067:8 0.000516539
7 *4083:A0 *4083:A1 9.52646e-05
8 *4083:S *4083:A1 4.66108e-05
9 *4091:A1 *4083:A1 0.000131791
10 *4134:A *1067:16 0
11 *4209:D *1067:16 0
12 *4210:C1 *1067:16 0.000163992
13 *4215:B1 *4210:B2 8.64421e-05
14 *993:43 *4083:A1 0.000171712
15 *993:54 *4083:A1 0
16 *993:54 *1067:16 0
17 *993:56 *1067:16 0
18 *1014:26 *1067:16 0
*RES
1 *4565:Q *1067:8 3.79 
2 *1067:8 *1067:16 6.995 
3 *1067:16 *5014:A 4.74 
4 *1067:16 *4083:A1 9.3 
5 *1067:8 *4210:B2 3.085 
*END

*D_NET *1068 0.00235282
*CONN
*I *4244:C I *D sky130_fd_sc_hd__and4bb_2
*I *4963:A I *D sky130_fd_sc_hd__dlygate4sd3_1
*I *4076:A0 I *D sky130_fd_sc_hd__mux2_1
*I *4566:Q O *D sky130_fd_sc_hd__dfrtp_2
*CAP
1 *4244:C 8.47479e-05
2 *4963:A 0.00029204
3 *4076:A0 0.000490529
4 *4566:Q 0.000565054
5 *1068:26 0.000451313
6 *4963:A *4092:A0 0.000130992
7 *4963:A *1084:25 0.000129041
8 *4092:A1 *4076:A0 0.00013611
9 *4244:B_N *4244:C 2.30292e-05
10 *4244:D *4244:C 4.99619e-05
11 *4245:C1 *4963:A 0
12 *4582:RESET_B *4963:A 0
13 *1005:46 *4076:A0 0
*RES
1 *4566:Q *4076:A0 14.22 
2 *4566:Q *1068:26 2.395 
3 *1068:26 *4963:A 11.315 
4 *1068:26 *4244:C 2.74 
*END

*D_NET *1069 0.00308439
*CONN
*I *4272:A1 I *D sky130_fd_sc_hd__a2111o_2
*I *4077:A0 I *D sky130_fd_sc_hd__mux2_1
*I *4085:A1 I *D sky130_fd_sc_hd__mux2_1
*I *4567:Q O *D sky130_fd_sc_hd__dfrtp_2
*CAP
1 *4272:A1 9.70875e-05
2 *4077:A0 0.000164131
3 *4085:A1 0.000380023
4 *4567:Q 0
5 *1069:8 0.000811245
6 *1069:4 0.000364179
7 *4077:A0 *4271:A2 1.0397e-05
8 *4085:A0 *4085:A1 1.16578e-05
9 *4085:S *4085:A1 8.65037e-05
10 *4093:A1 *4085:A1 0.000185398
11 *4591:D *4085:A1 0.000292059
12 *955:12 *4085:A1 3.66286e-05
13 *990:55 *4077:A0 8.52845e-05
14 *990:76 *4077:A0 0.000266754
15 *990:76 *4085:A1 0.000134492
16 *1015:71 *4077:A0 0.000158547
*RES
1 *4567:Q *1069:4 1.6 
2 *1069:4 *1069:8 4.865 
3 *1069:8 *4085:A1 12.06 
4 *1069:8 *4077:A0 7.995 
5 *1069:4 *4272:A1 2.74 
*END

*D_NET *1070 0.00177834
*CONN
*I *4312:C I *D sky130_fd_sc_hd__and4bb_2
*I *4989:A I *D sky130_fd_sc_hd__dlygate4sd3_1
*I *4078:A0 I *D sky130_fd_sc_hd__mux2_1
*I *4568:Q O *D sky130_fd_sc_hd__dfrtp_2
*CAP
1 *4312:C 0.00021063
2 *4989:A 0
3 *4078:A0 0.00014711
4 *4568:Q 0.000142133
5 *1070:12 0.000213393
6 *1070:6 0.000419046
7 *1070:12 *4314:A2 3.54721e-05
8 *4078:A1 *4078:A0 4.77807e-05
9 *4312:A_N *4312:C 1.79098e-05
10 *614:10 *4312:C 4.82369e-05
11 *614:66 *4078:A0 0.000418258
12 *990:38 *4078:A0 2.21074e-05
13 *1015:79 *1070:12 5.62661e-05
*RES
1 *4568:Q *1070:6 3.085 
2 *1070:6 *1070:12 5.38 
3 *1070:12 *4078:A0 5.5 
4 *1070:12 *4989:A 1.6 
5 *1070:6 *4312:C 4.12 
*END

*D_NET *1071 0.00227676
*CONN
*I *4360:A1 I *D sky130_fd_sc_hd__a22o_2
*I *4079:A0 I *D sky130_fd_sc_hd__mux2_1
*I *4087:A1 I *D sky130_fd_sc_hd__mux2_1
*I *4569:Q O *D sky130_fd_sc_hd__dfrtp_2
*CAP
1 *4360:A1 7.32349e-05
2 *4079:A0 0
3 *4087:A1 4.11714e-05
4 *4569:Q 0.000442935
5 *1071:23 0.000123397
6 *1071:12 0.000534268
7 *4079:A1 *1071:12 0
8 *4360:B1 *4360:A1 5.83373e-05
9 *4361:A1 *4360:A1 4.11281e-05
10 *4361:A1 *1071:12 0
11 *4797:A *1071:12 7.23602e-05
12 *985:24 *4360:A1 4.82863e-05
13 *985:24 *1071:23 2.55546e-05
14 *985:34 *4087:A1 0.000120655
15 *985:34 *1071:23 0.000163204
16 *997:20 *4087:A1 4.80285e-05
17 *997:20 *4360:A1 1.34503e-05
18 *997:20 *1071:23 0.000113809
19 *997:24 *1071:12 6.28843e-05
20 *997:37 *1071:12 0.000276966
21 *997:55 *1071:12 1.70935e-05
*RES
1 *4569:Q *1071:12 12.17 
2 *1071:12 *4087:A1 2.74 
3 *1071:12 *1071:23 2.19 
4 *1071:23 *4079:A0 1.6 
5 *1071:23 *4360:A1 7.43 
*END

*D_NET *1072 0.00323257
*CONN
*I *4080:A0 I *D sky130_fd_sc_hd__mux2_1
*I *4146:B2 I *D sky130_fd_sc_hd__a22o_2
*I *4088:A1 I *D sky130_fd_sc_hd__mux2_1
*I *4570:Q O *D sky130_fd_sc_hd__dfrtp_2
*CAP
1 *4080:A0 0.000113467
2 *4146:B2 0.000310814
3 *4088:A1 0.000127521
4 *4570:Q 0
5 *1072:10 0.000571385
6 *1072:6 0.000246517
7 *4088:A1 *4983:A 0.000158066
8 *4146:B2 *4142:A 0.000130391
9 *4146:B2 *1088:8 3.31103e-05
10 *1072:10 *4096:A1 1.23268e-05
11 *1072:10 *1080:10 6.85518e-05
12 *4080:S *4080:A0 4.66108e-05
13 *4088:S *4088:A1 4.21973e-05
14 *4088:S *4146:B2 2.49909e-05
15 *4096:S *1072:10 4.83522e-05
16 *4562:RESET_B *4080:A0 0.000202088
17 *4685:RESET_B *4080:A0 1.44177e-05
18 *4685:RESET_B *1072:10 6.74316e-05
19 *290:12 *4146:B2 3.54895e-05
20 *429:6 *4080:A0 0.000120655
21 *626:42 *4146:B2 0.000184866
22 *702:54 *4146:B2 8.23457e-05
23 *1000:26 *4080:A0 2.07184e-05
24 *1000:28 *4080:A0 0.000224473
25 *1000:28 *1072:10 0.000282818
26 *1029:90 *4080:A0 6.29663e-05
*RES
1 *4570:Q *1072:6 3.6 
2 *1072:6 *1072:10 5.93 
3 *1072:10 *4088:A1 3.775 
4 *1072:10 *4146:B2 11.93 
5 *1072:6 *4080:A0 7.65 
*END

*D_NET *1073 0.00129629
*CONN
*I *4934:A I *D sky130_fd_sc_hd__dlygate4sd3_1
*I *4164:C I *D sky130_fd_sc_hd__and4bb_2
*I *4571:Q O *D sky130_fd_sc_hd__dfrtp_2
*CAP
1 *4934:A 7.06606e-05
2 *4164:C 0.000167863
3 *4571:Q 0.000206877
4 *1073:8 0.000445401
5 *4164:C *4967:A 0.000123466
6 *4934:A *4967:A 5.8842e-05
7 *4081:A1 *4164:C 8.65905e-05
8 *4164:D *4164:C 3.00381e-05
9 *4571:RESET_B *4164:C 0
10 *4571:RESET_B *1073:8 9.31061e-05
11 *4579:D *4164:C 0
12 *4579:D *4934:A 0
13 *1005:36 *4164:C 1.34503e-05
*RES
1 *4571:Q *1073:8 6.12 
2 *1073:8 *4164:C 7.41 
3 *1073:8 *4934:A 4.98 
*END

*D_NET *1074 0.00185062
*CONN
*I *4182:A I *D sky130_fd_sc_hd__and2_2
*I *4836:A I *D sky130_fd_sc_hd__dlygate4sd3_1
*I *4572:Q O *D sky130_fd_sc_hd__dfrtp_2
*CAP
1 *4182:A 9.93135e-05
2 *4836:A 0
3 *4572:Q 0.00026458
4 *1074:10 0.000363893
5 *4183:C1 *4182:A 0.000174457
6 *4183:C1 *1074:10 0.0002766
7 *4185:A1 *1074:10 0.000137462
8 *330:10 *4182:A 8.23457e-05
9 *702:14 *1074:10 6.90254e-05
10 *702:28 *4182:A 0.000167044
11 *702:28 *1074:10 0.000215905
*RES
1 *4572:Q *1074:10 9.195 
2 *1074:10 *4836:A 3.6 
3 *1074:10 *4182:A 6.54 
*END

*D_NET *1075 0.00201546
*CONN
*I *4969:A I *D sky130_fd_sc_hd__dlygate4sd3_1
*I *4209:C I *D sky130_fd_sc_hd__and4bb_2
*I *4573:Q O *D sky130_fd_sc_hd__dfrtp_2
*CAP
1 *4969:A 0.000263769
2 *4209:C 0
3 *4573:Q 0.000116683
4 *1075:8 0.000380453
5 *4091:A1 *4969:A 1.9872e-05
6 *4209:A_N *4969:A 2.47079e-05
7 *4209:A_N *1075:8 9.56061e-05
8 *4209:B_N *4969:A 4.82919e-05
9 *623:45 *4969:A 0.000121019
10 *623:45 *1075:8 0.000310067
11 *1007:53 *4969:A 0.000317494
12 *1014:26 *4969:A 0.000317494
*RES
1 *4573:Q *1075:8 5.08 
2 *1075:8 *4209:C 1.6 
3 *1075:8 *4969:A 12.59 
*END

*D_NET *1076 0.00131047
*CONN
*I *4855:A I *D sky130_fd_sc_hd__dlygate4sd3_1
*I *4243:B2 I *D sky130_fd_sc_hd__a221o_2
*I *4574:Q O *D sky130_fd_sc_hd__dfrtp_2
*CAP
1 *4855:A 2.88664e-05
2 *4243:B2 0.000231998
3 *4574:Q 0.000260864
4 *4243:B2 *4092:A0 0.000336056
5 *4092:A1 *4243:B2 0.000313671
6 *4242:B *4243:B2 0
7 *4243:A2 *4243:B2 2.66464e-05
8 *4243:B1 *4243:B2 9.50342e-06
9 *4243:C1 *4243:B2 4.43871e-06
10 *4248:B1 *4243:B2 1.35051e-05
11 *1005:36 *4855:A 8.49205e-05
12 *1005:46 *4243:B2 0
*RES
1 *4574:Q *4243:B2 13.35 
2 *4574:Q *4855:A 3.995 
*END

*D_NET *1077 0.0032095
*CONN
*I *4267:A I *D sky130_fd_sc_hd__and2_2
*I *4998:A I *D sky130_fd_sc_hd__dlygate4sd3_1
*I *4575:Q O *D sky130_fd_sc_hd__dfrtp_2
*CAP
1 *4267:A 0.000597754
2 *4998:A 0.000224094
3 *4575:Q 0.000183024
4 *1077:8 0.00100487
5 *4267:A *4994:A 0
6 *4998:A *4994:A 0
7 *4101:A0 *4267:A 0
8 *4101:A0 *4998:A 8.65905e-05
9 *4269:D *4267:A 2.68037e-05
10 *4272:B1 *4267:A 2.40658e-05
11 *4272:C1 *4267:A 0.000112589
12 *4272:D1 *4267:A 4.31108e-05
13 *4560:CLK *1077:8 0.00016569
14 *4600:RESET_B *4267:A 2.93063e-05
15 *4777:A *4267:A 0.000567731
16 *890:10 *4267:A 7.40458e-05
17 *951:12 *4998:A 0
18 *1015:42 *4267:A 6.98212e-05
*RES
1 *4575:Q *1077:8 6.12 
2 *1077:8 *4998:A 7.305 
3 *1077:8 *4267:A 16.635 
*END

*D_NET *1078 0.00514834
*CONN
*I *4311:B2 I *D sky130_fd_sc_hd__a221o_2
*I *4086:A0 I *D sky130_fd_sc_hd__mux2_1
*I *4094:A1 I *D sky130_fd_sc_hd__mux2_1
*I *4576:Q O *D sky130_fd_sc_hd__dfrtp_2
*CAP
1 *4311:B2 0.000808811
2 *4086:A0 5.19799e-05
3 *4094:A1 0.000105105
4 *4576:Q 0.00026526
5 *1078:23 0.000912862
6 *1078:10 0.000422436
7 *4311:B2 *4102:A1 0.000314322
8 *4086:A1 *1078:10 0.000365327
9 *4086:A1 *1078:23 6.38291e-05
10 *4102:A0 *4311:B2 0.00019898
11 *4315:A1 *1078:10 2.75229e-05
12 *4576:RESET_B *1078:10 4.24575e-05
13 *4584:CLK *4094:A1 4.05674e-06
14 *4592:CLK *4094:A1 3.18568e-05
15 *4592:D *1078:23 0
16 *4592:RESET_B *1078:10 0.0001009
17 *4592:RESET_B *1078:23 2.97004e-06
18 *4616:D *4311:B2 0.000234674
19 *4745:A *4311:B2 0.000276441
20 *987:118 *4311:B2 0.000210137
21 *989:8 *4311:B2 0.000268999
22 *990:14 *4311:B2 2.20014e-05
23 *990:16 *4311:B2 0.000283263
24 *990:22 *4086:A0 4.80285e-05
25 *990:22 *4311:B2 2.75229e-05
26 *990:22 *1078:23 1.1561e-05
27 *1031:63 *1078:10 4.70343e-05
*RES
1 *4576:Q *1078:10 9.615 
2 *1078:10 *4094:A1 4.74 
3 *1078:10 *1078:23 3.125 
4 *1078:23 *4086:A0 2.395 
5 *1078:23 *4311:B2 19.4237 
*END

*D_NET *1079 0.00289643
*CONN
*I *4095:A1 I *D sky130_fd_sc_hd__mux2_1
*I *4995:A I *D sky130_fd_sc_hd__dlygate4sd3_1
*I *4360:B2 I *D sky130_fd_sc_hd__a22o_2
*I *4577:Q O *D sky130_fd_sc_hd__dfrtp_2
*CAP
1 *4095:A1 0.000217197
2 *4995:A 0.000202202
3 *4360:B2 5.43636e-05
4 *4577:Q 0.000515798
5 *1079:22 0.000880834
6 *4103:A1 *4095:A1 0.000301763
7 *4577:CLK *4095:A1 0.000222543
8 *4577:D *4095:A1 6.1197e-05
9 *4577:D *4995:A 5.50141e-05
10 *4996:A *4995:A 0
11 *618:10 *4095:A1 0.000154355
12 *722:77 *4360:B2 3.72916e-05
13 *722:77 *1079:22 6.89821e-05
14 *985:34 *4995:A 0.000124895
*RES
1 *4577:Q *4360:B2 4.355 
2 *4577:Q *1079:22 8.88 
3 *1079:22 *4995:A 7.395 
4 *1079:22 *4095:A1 9.615 
*END

*D_NET *1080 0.00350204
*CONN
*I *4143:A2 I *D sky130_fd_sc_hd__o211a_2
*I *4983:A I *D sky130_fd_sc_hd__dlygate4sd3_1
*I *4096:A1 I *D sky130_fd_sc_hd__mux2_1
*I *4578:Q O *D sky130_fd_sc_hd__dfrtp_2
*CAP
1 *4143:A2 0.000258737
2 *4983:A 0.000208844
3 *4096:A1 0.00027195
4 *4578:Q 0.000351859
5 *1080:10 0.000573916
6 *4143:A2 *1096:10 0
7 *4088:A0 *4983:A 0.000198945
8 *4088:A1 *4983:A 0.000158066
9 *4088:S *4983:A 8.40213e-05
10 *4096:A0 *4096:A1 4.82863e-05
11 *4096:S *4096:A1 8.5621e-05
12 *4143:A1 *4143:A2 9.50342e-06
13 *4685:RESET_B *4096:A1 0.000128357
14 *4685:RESET_B *1080:10 0.00012696
15 *4951:A *4096:A1 0.000103898
16 *4984:A *4983:A 1.91597e-05
17 *289:18 *4983:A 6.97034e-05
18 *700:10 *4096:A1 2.30292e-05
19 *982:77 *4143:A2 2.30292e-05
20 *985:16 *4096:A1 0.000109334
21 *985:16 *4983:A 0.000207841
22 *987:49 *4143:A2 0.000345701
23 *987:49 *1080:10 1.4399e-05
24 *1021:52 *4143:A2 0
25 *1072:10 *4096:A1 1.23268e-05
26 *1072:10 *1080:10 6.85518e-05
*RES
1 *4578:Q *1080:10 5.685 
2 *1080:10 *4096:A1 9.945 
3 *1080:10 *4983:A 9.57 
4 *4578:Q *4143:A2 11.1 
*END

*D_NET *1081 0.00332963
*CONN
*I *4967:A I *D sky130_fd_sc_hd__dlygate4sd3_1
*I *4163:A2 I *D sky130_fd_sc_hd__o211a_2
*I *4579:Q O *D sky130_fd_sc_hd__dfrtp_2
*CAP
1 *4967:A 0.00036426
2 *4163:A2 0.000287091
3 *4579:Q 0
4 *1081:6 0.000651351
5 *4163:A2 *1130:27 1.47256e-05
6 *4081:S *4967:A 0.000537207
7 *4162:D *4163:A2 0.000161529
8 *4164:B_N *4163:A2 0.000171117
9 *4164:B_N *4967:A 8.34348e-05
10 *4164:C *4967:A 0.000123466
11 *4753:A *4967:A 4.58101e-05
12 *4934:A *4967:A 5.8842e-05
13 *5049:A *4967:A 8.8266e-05
14 *265:6 *4967:A 6.6564e-05
15 *1004:60 *4163:A2 0
16 *1005:36 *4967:A 0
17 *1011:16 *4163:A2 0.000148977
18 *1011:22 *4163:A2 0.000341413
19 *1020:20 *4163:A2 0.000138966
20 *1027:41 *4163:A2 4.66108e-05
*RES
1 *4579:Q *1081:6 3.6 
2 *1081:6 *4163:A2 11.88 
3 *1081:6 *4967:A 13.695 
*END

*D_NET *1082 0.00363438
*CONN
*I *4183:A2 I *D sky130_fd_sc_hd__o211a_2
*I *4090:A0 I *D sky130_fd_sc_hd__mux2_1
*I *4917:A I *D sky130_fd_sc_hd__dlygate4sd3_1
*I *4580:Q O *D sky130_fd_sc_hd__dfrtp_2
*CAP
1 *4183:A2 3.81273e-05
2 *4090:A0 0
3 *4917:A 0.000413908
4 *4580:Q 0.000104717
5 *1082:23 0.000809541
6 *1082:6 0.00129004
7 *4074:S *4917:A 0.000132946
8 *4090:S *4183:A2 6.47516e-05
9 *4090:S *1082:23 4.05358e-05
10 *4098:A0 *4183:A2 0.000106655
11 *4098:A0 *1082:23 0.000183043
12 *4185:A1 *4917:A 1.38207e-05
13 *4564:D *4917:A 0
14 *4572:D *4917:A 0
15 *4572:RESET_B *1082:23 7.27298e-06
16 *4580:CLK *1082:23 0.000134938
17 *4580:RESET_B *1082:23 1.30699e-05
18 *4588:CLK *4917:A 0
19 *4588:D *4917:A 0.000266474
20 *4609:RESET_B *4917:A 0
21 *5037:A *1082:23 1.45347e-05
22 *699:31 *4917:A 0
23 *997:12 *4917:A 0
*RES
1 *4580:Q *1082:6 2.74 
2 *1082:6 *4917:A 13.1 
3 *1082:6 *1082:23 11.84 
4 *1082:23 *4090:A0 3.6 
5 *1082:23 *4183:A2 4.98 
*END

*D_NET *1083 0.0017798
*CONN
*I *4212:A2 I *D sky130_fd_sc_hd__o211a_2
*I *4875:A I *D sky130_fd_sc_hd__dlygate4sd3_1
*I *4581:Q O *D sky130_fd_sc_hd__dfrtp_2
*CAP
1 *4212:A2 0.000330162
2 *4875:A 0.000217453
3 *4581:Q 4.8373e-05
4 *1083:8 0.000595988
5 *4212:A2 *1091:8 6.00201e-05
6 *4107:A0 *4212:A2 4.78678e-05
7 *4589:D *4212:A2 9.38785e-05
8 *4589:RESET_B *4875:A 3.35901e-05
9 *4589:RESET_B *1083:8 7.14696e-05
10 *993:37 *4212:A2 1.03755e-05
11 *993:37 *4875:A 7.03934e-05
12 *993:37 *1083:8 4.70628e-05
13 *1007:45 *4212:A2 3.2641e-06
14 *1007:53 *4212:A2 0.000111582
15 *1014:26 *4212:A2 3.83194e-05
*RES
1 *4581:Q *1083:8 5.1075 
2 *1083:8 *4875:A 7.7025 
3 *1083:8 *4212:A2 9.9225 
*END

*D_NET *1084 0.00358543
*CONN
*I *4245:A2 I *D sky130_fd_sc_hd__o211a_2
*I *4975:A I *D sky130_fd_sc_hd__dlygate4sd3_1
*I *4092:A0 I *D sky130_fd_sc_hd__mux2_1
*I *4582:Q O *D sky130_fd_sc_hd__dfrtp_2
*CAP
1 *4245:A2 1.94509e-05
2 *4975:A 0.000229655
3 *4092:A0 0.000292854
4 *4582:Q 0.000119345
5 *1084:25 0.000719812
6 *1084:8 0.000882905
7 *4084:A0 *4092:A0 3.67779e-05
8 *4084:A0 *1084:25 3.35653e-05
9 *4092:A1 *4092:A0 0.000107511
10 *4092:S *4092:A0 1.61831e-05
11 *4242:B *4092:A0 0
12 *4243:B2 *4092:A0 0.000336056
13 *4245:A1 *4975:A 5.29505e-05
14 *4245:B1 *1084:25 4.77757e-05
15 *4245:C1 *4092:A0 0
16 *4245:C1 *1084:25 8.65961e-05
17 *4247:C1 *4975:A 4.82863e-05
18 *4752:A *1084:25 0
19 *4963:A *4092:A0 0.000130992
20 *4963:A *1084:25 0.000129041
21 *265:6 *4975:A 1.14282e-05
22 *265:6 *1084:25 0.000194019
23 *704:76 *1084:8 9.02259e-05
24 *1026:89 *4092:A0 0
*RES
1 *4582:Q *1084:8 5.085 
2 *1084:8 *4092:A0 10.365 
3 *1084:8 *1084:25 10.94 
4 *1084:25 *4975:A 5.005 
5 *1084:25 *4245:A2 1.96 
*END

*D_NET *1085 0.00348872
*CONN
*I *4994:A I *D sky130_fd_sc_hd__dlygate4sd3_1
*I *4271:A2 I *D sky130_fd_sc_hd__o211a_2
*I *4583:Q O *D sky130_fd_sc_hd__dfrtp_2
*CAP
1 *4994:A 0.000545871
2 *4271:A2 0.000463459
3 *4583:Q 0.000200873
4 *1085:6 0.0012102
5 *4070:A1 *4994:A 2.52034e-05
6 *4077:A0 *4271:A2 1.0397e-05
7 *4077:A1 *4271:A2 1.88602e-05
8 *4267:A *4994:A 0
9 *4271:A1 *4271:A2 2.66073e-05
10 *4271:C1 *4271:A2 1.89023e-05
11 *4560:CLK *4994:A 0.000390466
12 *4591:D *4994:A 4.41506e-05
13 *4591:D *1085:6 4.78564e-05
14 *4591:RESET_B *4994:A 7.40482e-06
15 *4591:RESET_B *1085:6 2.98807e-05
16 *4998:A *4994:A 0
17 *614:22 *4271:A2 0
18 *614:22 *1085:6 3.66734e-05
19 *990:76 *4271:A2 0.000363235
20 *1008:47 *4271:A2 0
21 *1015:71 *4271:A2 1.73406e-05
22 *1015:79 *4271:A2 3.13354e-05
*RES
1 *4583:Q *1085:6 4.12 
2 *1085:6 *4271:A2 13.79 
3 *1085:6 *4994:A 14 
*END

*D_NET *1086 0.00392496
*CONN
*I *4992:A I *D sky130_fd_sc_hd__dlygate4sd3_1
*I *4102:A1 I *D sky130_fd_sc_hd__mux2_1
*I *4314:A2 I *D sky130_fd_sc_hd__o211a_2
*I *4584:Q O *D sky130_fd_sc_hd__dfrtp_2
*CAP
1 *4992:A 0.000145881
2 *4102:A1 0.000200352
3 *4314:A2 0.000784939
4 *4584:Q 0
5 *1086:21 0.000598236
6 *1086:6 0.00103694
7 *4311:B2 *4102:A1 0.000314322
8 *4313:A_N *4314:A2 0
9 *4313:A_N *1086:21 0
10 *4314:B1 *4314:A2 3.01947e-05
11 *4315:A1 *4314:A2 0.000127396
12 *4592:D *4992:A 9.49635e-05
13 *4592:D *1086:21 3.59997e-05
14 *4592:RESET_B *1086:21 0
15 *4709:A *4314:A2 0.000122801
16 *4946:A *4992:A 4.40812e-05
17 *614:66 *4314:A2 0.000231822
18 *1008:47 *4314:A2 6.93523e-06
19 *1008:51 *4314:A2 0.000114619
20 *1015:79 *4314:A2 0
21 *1031:53 *4314:A2 0
22 *1031:63 *4314:A2 0
23 *1031:63 *1086:21 0
24 *1070:12 *4314:A2 3.54721e-05
*RES
1 *4584:Q *1086:6 3.6 
2 *1086:6 *4314:A2 15.48 
3 *1086:6 *1086:21 4.185 
4 *1086:21 *4102:A1 6.465 
5 *1086:21 *4992:A 6.705 
*END

*D_NET *1087 0.00238988
*CONN
*I *4359:B I *D sky130_fd_sc_hd__or2_2
*I *4953:A I *D sky130_fd_sc_hd__dlygate4sd3_1
*I *4585:Q O *D sky130_fd_sc_hd__dfrtp_2
*CAP
1 *4359:B 0.000190261
2 *4953:A 2.61242e-05
3 *4585:Q 0.000203266
4 *1087:8 0.000419651
5 *4095:S *1087:8 3.06667e-05
6 *4183:A1 *4359:B 0.00036474
7 *4183:A1 *1087:8 0.000160658
8 *4365:B1 *4359:B 0.000397046
9 *4365:B1 *1087:8 0.000452755
10 *4369:C1 *4953:A 4.66108e-05
11 *4593:D *1087:8 0
12 *891:26 *4359:B 6.71882e-05
13 *1013:44 *4359:B 3.09164e-05
*RES
1 *4585:Q *1087:8 9.06 
2 *1087:8 *4953:A 4.05 
3 *1087:8 *4359:B 9.435 
*END

*D_NET *1088 0.00137514
*CONN
*I *4142:A I *D sky130_fd_sc_hd__and2_2
*I *4950:A I *D sky130_fd_sc_hd__dlygate4sd3_1
*I *4586:Q O *D sky130_fd_sc_hd__dfrtp_2
*CAP
1 *4142:A 0.000100665
2 *4950:A 0.000160647
3 *4586:Q 9.77755e-05
4 *1088:8 0.000359087
5 *4104:A1 *4142:A 0
6 *4142:B *4142:A 2.99518e-06
7 *4146:B2 *4142:A 0.000130391
8 *4146:B2 *1088:8 3.31103e-05
9 *4725:A *4142:A 6.86818e-05
10 *4725:A *4950:A 0.000132416
11 *4951:A *4950:A 0
12 *3:30 *4950:A 0.000154754
13 *626:42 *1088:8 3.82323e-06
14 *701:14 *4142:A 1.97442e-05
15 *702:54 *4142:A 0.000111049
*RES
1 *4586:Q *1088:8 4.74 
2 *1088:8 *4950:A 7.02 
3 *1088:8 *4142:A 6.255 
*END

*D_NET *1089 0.0024855
*CONN
*I *4920:A I *D sky130_fd_sc_hd__dlygate4sd3_1
*I *4161:B2 I *D sky130_fd_sc_hd__a22o_2
*I *4587:Q O *D sky130_fd_sc_hd__dfrtp_2
*CAP
1 *4920:A 7.87951e-05
2 *4161:B2 0.000444722
3 *4587:Q 0.000341111
4 *1089:8 0.000864628
5 *4161:B2 *4161:A1 9.29137e-05
6 *4161:B2 *1097:12 0
7 *4097:A0 *1089:8 0
8 *4598:D *1089:8 0
9 *4603:CLK *4161:B2 0.000131731
10 *4744:A *4161:B2 5.93588e-05
11 *4805:A *1089:8 0
12 *307:10 *4161:B2 0.000257293
13 *308:18 *4161:B2 0
14 *313:10 *4161:B2 0
15 *313:10 *1089:8 0
16 *982:10 *4161:B2 1.34361e-05
17 *1011:30 *4920:A 0.000201508
18 *1019:89 *4161:B2 0
19 *1019:89 *1089:8 0
*RES
1 *4587:Q *1089:8 9.06 
2 *1089:8 *4161:B2 12.42 
3 *1089:8 *4920:A 5.43 
*END

*D_NET *1090 0.0025768
*CONN
*I *4184:B2 I *D sky130_fd_sc_hd__a22o_2
*I *4895:A I *D sky130_fd_sc_hd__dlygate4sd3_1
*I *4588:Q O *D sky130_fd_sc_hd__dfrtp_2
*CAP
1 *4184:B2 0.000479182
2 *4895:A 0.000197484
3 *4588:Q 0
4 *1090:6 0.000676666
5 *4106:S *4184:B2 0
6 *4106:S *4895:A 0.000200615
7 *4564:RESET_B *4895:A 9.27495e-05
8 *4580:D *4895:A 4.94404e-05
9 *4837:A *4895:A 0.000293032
10 *330:10 *4184:B2 4.90227e-05
11 *697:12 *4895:A 2.66765e-05
12 *702:14 *4184:B2 0.000170853
13 *702:14 *4895:A 3.84409e-05
14 *702:28 *4184:B2 0.000107987
15 *998:63 *4184:B2 0
16 *1005:59 *4184:B2 0.00019465
*RES
1 *4588:Q *1090:6 3.6 
2 *1090:6 *4895:A 9.615 
3 *1090:6 *4184:B2 12.915 
*END

*D_NET *1091 0.00442931
*CONN
*I *4099:A0 I *D sky130_fd_sc_hd__mux2_1
*I *4107:A1 I *D sky130_fd_sc_hd__mux2_1
*I *4214:A1 I *D sky130_fd_sc_hd__a2111oi_2
*I *4589:Q O *D sky130_fd_sc_hd__dfrtp_2
*CAP
1 *4099:A0 0.00019492
2 *4107:A1 7.01663e-05
3 *4214:A1 0.000524867
4 *4589:Q 0.000384138
5 *1091:23 0.000306595
6 *1091:8 0.000950514
7 *4091:A0 *4107:A1 8.41307e-05
8 *4091:A0 *4214:A1 0.00017263
9 *4091:A0 *1091:23 3.67779e-05
10 *4091:S *4214:A1 0.000160213
11 *4099:A1 *4099:A0 6.60907e-06
12 *4099:S *4099:A0 8.1487e-05
13 *4212:A2 *1091:8 6.00201e-05
14 *4212:C1 *4214:A1 0.000307327
15 *4214:C1 *4214:A1 0.000197264
16 *4589:D *4099:A0 0
17 *4597:CLK *4099:A0 0
18 *4605:RESET_B *4099:A0 2.14129e-05
19 *4605:RESET_B *4107:A1 0.000197826
20 *4605:RESET_B *4214:A1 3.09164e-05
21 *4605:RESET_B *1091:23 8.45475e-05
22 *993:37 *4099:A0 1.1561e-05
23 *993:37 *4214:A1 9.68787e-05
24 *1022:36 *4214:A1 0.000448507
*RES
1 *4589:Q *1091:8 7.845 
2 *1091:8 *4214:A1 16.125 
3 *1091:8 *1091:23 1.125 
4 *1091:23 *4107:A1 5.43 
5 *1091:23 *4099:A0 7.05 
*END

*D_NET *1092 0.00321913
*CONN
*I *4942:A I *D sky130_fd_sc_hd__dlygate4sd3_1
*I *4247:A1 I *D sky130_fd_sc_hd__a2111o_2
*I *4590:Q O *D sky130_fd_sc_hd__dfrtp_2
*CAP
1 *4942:A 0.000102536
2 *4247:A1 0.000209941
3 *4590:Q 0.000229942
4 *1092:10 0.000542419
5 *4073:A1 *4942:A 9.70988e-05
6 *4100:A0 *4942:A 4.66108e-05
7 *4100:A1 *1092:10 7.23602e-05
8 *4108:A1 *4247:A1 0.000292053
9 *4108:A1 *1092:10 2.82846e-05
10 *4160:A *4247:A1 0.000160529
11 *4245:A1 *1092:10 5.39181e-05
12 *4582:RESET_B *1092:10 3.80583e-05
13 *4590:RESET_B *1092:10 0.000120741
14 *271:6 *1092:10 4.11324e-06
15 *627:80 *4942:A 0.00065602
16 *893:6 *4942:A 0.000379584
17 *1011:94 *4247:A1 0.000156658
18 *1057:28 *4247:A1 4.43871e-06
19 *1057:28 *1092:10 2.38256e-05
*RES
1 *4590:Q *1092:10 7.41 
2 *1092:10 *4247:A1 8.505 
3 *1092:10 *4942:A 9.57 
*END

*D_NET *1093 0.00356411
*CONN
*I *4940:A I *D sky130_fd_sc_hd__dlygate4sd3_1
*I *4268:B2 I *D sky130_fd_sc_hd__a22o_2
*I *4591:Q O *D sky130_fd_sc_hd__dfrtp_2
*CAP
1 *4940:A 4.65226e-05
2 *4268:B2 0.000457324
3 *4591:Q 0.000391035
4 *1093:10 0.000894882
5 *4268:B2 *4269:C 4.66108e-05
6 *4268:B2 *4273:B2 3.41176e-05
7 *4268:B2 *4973:A 0.000446065
8 *4940:A *1109:10 2.85623e-05
9 *1093:10 *1101:10 7.30547e-05
10 *1093:10 *1109:10 0.000158839
11 *4070:A1 *1093:10 0.00015541
12 *4101:A0 *1093:10 3.09233e-05
13 *4109:S *1093:10 4.66742e-05
14 *4268:B1 *4268:B2 5.19006e-06
15 *4269:A_N *4940:A 5.87261e-05
16 *4273:A2 *4268:B2 6.87436e-05
17 *4273:B1 *4268:B2 4.77769e-05
18 *4599:D *4268:B2 6.71617e-05
19 *4941:A *1093:10 0
20 *890:10 *4940:A 8.14286e-05
21 *890:10 *1093:10 0.000400034
22 *1008:31 *4940:A 2.50325e-05
*RES
1 *4591:Q *1093:10 12.795 
2 *1093:10 *4268:B2 12.69 
3 *1093:10 *4940:A 5.235 
*END

*D_NET *1094 0.0019514
*CONN
*I *4110:A1 I *D sky130_fd_sc_hd__mux2_1
*I *4945:A I *D sky130_fd_sc_hd__dlygate4sd3_1
*I *4313:D I *D sky130_fd_sc_hd__and4bb_2
*I *4592:Q O *D sky130_fd_sc_hd__dfrtp_2
*CAP
1 *4110:A1 0.000310649
2 *4945:A 0.000251495
3 *4313:D 0.000222696
4 *4592:Q 4.44259e-05
5 *1094:8 0.000474191
6 *1094:6 0.000355075
7 *4102:A0 *4945:A 1.07797e-05
8 *4110:A0 *4110:A1 4.82863e-05
9 *4313:B_N *4313:D 4.6368e-06
10 *4944:A *4110:A1 4.14594e-05
11 *990:14 *4945:A 0.000187708
*RES
1 *4592:Q *1094:6 2.05 
2 *1094:6 *1094:8 2 
3 *1094:8 *4313:D 7.065 
4 *1094:8 *4945:A 8.16 
5 *1094:6 *4110:A1 5.155 
*END

*D_NET *1095 0.00131607
*CONN
*I *4361:B2 I *D sky130_fd_sc_hd__a221o_2
*I *4982:A I *D sky130_fd_sc_hd__dlygate4sd3_1
*I *4593:Q O *D sky130_fd_sc_hd__dfrtp_2
*CAP
1 *4361:B2 4.84498e-05
2 *4982:A 0.000114972
3 *4593:Q 0.000213743
4 *1095:10 0.000377164
5 *4183:A1 *1095:10 1.79098e-05
6 *4185:A1 *4982:A 4.89395e-05
7 *4361:C1 *4982:A 0.000154762
8 *4609:D *1095:10 2.41231e-05
9 *4979:A *1095:10 0
10 *722:77 *4982:A 2.69217e-05
11 *847:22 *4361:B2 8.43466e-05
12 *983:30 *4361:B2 4.95837e-05
13 *985:16 *1095:10 0.000124439
14 *985:24 *4982:A 9.92098e-06
15 *985:24 *1095:10 2.0794e-05
16 *997:12 *4982:A 0
*RES
1 *4593:Q *1095:10 7.47 
2 *1095:10 *4982:A 6.195 
3 *1095:10 *4361:B2 4.86375 
*END

*D_NET *1096 0.00298266
*CONN
*I *4112:A1 I *D sky130_fd_sc_hd__mux2_1
*I *4968:A I *D sky130_fd_sc_hd__dlygate4sd3_1
*I *4146:A1 I *D sky130_fd_sc_hd__a22o_2
*I *4594:Q O *D sky130_fd_sc_hd__dfrtp_2
*CAP
1 *4112:A1 0.000145694
2 *4968:A 0
3 *4146:A1 0.00018639
4 *4594:Q 0.000576504
5 *1096:23 0.00020226
6 *1096:10 0.00081946
7 *1096:10 *4145:C 5.05437e-05
8 *4104:A0 *4146:A1 6.78637e-05
9 *4112:A0 *4112:A1 4.99619e-05
10 *4142:B *4146:A1 0
11 *4143:A2 *1096:10 0
12 *4146:B1 *4146:A1 0.000117711
13 *4594:CLK *1096:10 4.38278e-05
14 *4594:D *4146:A1 7.36562e-05
15 *4594:D *1096:10 6.36578e-05
16 *4610:CLK *4146:A1 8.68767e-06
17 *626:14 *1096:10 0.000187264
18 *626:25 *4146:A1 1.52507e-05
19 *626:27 *4146:A1 2.90745e-05
20 *982:34 *4112:A1 0.000160801
21 *982:38 *4112:A1 6.34007e-05
22 *982:38 *1096:23 0.000120655
*RES
1 *4594:Q *1096:10 11.295 
2 *1096:10 *4146:A1 7.53 
3 *1096:10 *1096:23 3.14 
4 *1096:23 *4968:A 1.6 
5 *1096:23 *4112:A1 4.48 
*END

*D_NET *1097 0.00398043
*CONN
*I *4955:A I *D sky130_fd_sc_hd__dlygate4sd3_1
*I *4105:A0 I *D sky130_fd_sc_hd__mux2_1
*I *4161:A1 I *D sky130_fd_sc_hd__a22o_2
*I *4595:Q O *D sky130_fd_sc_hd__dfrtp_2
*CAP
1 *4955:A 0.000426432
2 *4105:A0 0
3 *4161:A1 0.000300008
4 *4595:Q 0.000376494
5 *1097:12 0.00110293
6 *4105:A1 *4955:A 4.82919e-05
7 *4105:S *4955:A 0.000132335
8 *4113:A0 *4955:A 1.61831e-05
9 *4113:A1 *4955:A 4.60584e-05
10 *4113:S *4955:A 0.000124895
11 *4161:B2 *4161:A1 9.29137e-05
12 *4161:B2 *1097:12 0
13 *4595:D *1097:12 0
14 *4603:CLK *4161:A1 1.03572e-05
15 *4727:A *1097:12 0.000244886
16 *4744:A *4161:A1 0.000157595
17 *4921:A *4161:A1 0.000138808
18 *313:10 *1097:12 0.000139933
19 *613:22 *4161:A1 0.000228401
20 *613:22 *4955:A 0.000118154
21 *982:10 *4161:A1 0.000112825
22 *1004:60 *4955:A 0.000162929
23 *1019:54 *4161:A1 0
24 *1019:89 *4161:A1 0
*RES
1 *4595:Q *1097:12 11.135 
2 *1097:12 *4161:A1 13.085 
3 *1097:12 *4105:A0 1.6 
4 *1097:12 *4955:A 10.03 
*END

*D_NET *1098 0.00259173
*CONN
*I *4180:D I *D sky130_fd_sc_hd__and4b_2
*I *4106:A0 I *D sky130_fd_sc_hd__mux2_1
*I *4114:A1 I *D sky130_fd_sc_hd__mux2_1
*I *4596:Q O *D sky130_fd_sc_hd__dfrtp_2
*CAP
1 *4180:D 0.000172365
2 *4106:A0 0.000342944
3 *4114:A1 0.000300509
4 *4596:Q 3.38751e-05
5 *1098:10 0.000693306
6 *1098:8 0.000256094
7 *4180:D *4180:B 0.00022007
8 *4180:D *1114:8 6.65804e-05
9 *4106:A1 *4106:A0 4.99619e-05
10 *4106:S *4106:A0 1.33293e-05
11 *4114:A0 *4114:A1 4.89295e-05
12 *4114:S *4114:A1 0
13 *4180:C *4180:D 0.000140403
14 *4596:RESET_B *1098:8 4.82863e-05
15 *4604:D *4114:A1 4.43871e-06
16 *4604:D *4180:D 1.52184e-05
17 *4604:D *1098:10 3.67779e-05
18 *4896:A *4114:A1 0
19 *4972:A *4106:A0 8.31082e-05
20 *4972:A *4114:A1 6.55328e-05
*RES
1 *4596:Q *1098:8 4.05 
2 *1098:8 *1098:10 0.87 
3 *1098:10 *4114:A1 8.775 
4 *1098:10 *4106:A0 7.845 
5 *1098:8 *4180:D 8.19 
*END

*D_NET *1099 0.0005319
*CONN
*I *4956:A I *D sky130_fd_sc_hd__dlygate4sd3_1
*I *4211:D I *D sky130_fd_sc_hd__and4b_2
*I *4597:Q O *D sky130_fd_sc_hd__dfrtp_2
*CAP
1 *4956:A 0.000111965
2 *4211:D 0
3 *4597:Q 0.000124996
4 *1099:10 0.000236961
5 *1099:10 *4958:A 2.11084e-05
6 *4211:B *1099:10 0
7 *4214:B1 *1099:10 3.68682e-05
8 *4747:A *1099:10 0
9 *909:12 *4956:A 0
10 *909:12 *1099:10 0
*RES
1 *4597:Q *1099:10 5.685 
2 *1099:10 *4211:D 3.6 
3 *1099:10 *4956:A 5.49 
*END

*D_NET *1100 0.00148194
*CONN
*I *4822:A I *D sky130_fd_sc_hd__dlygate4sd3_1
*I *4246:D I *D sky130_fd_sc_hd__and4b_2
*I *4598:Q O *D sky130_fd_sc_hd__dfrtp_2
*CAP
1 *4822:A 9.95523e-05
2 *4246:D 0
3 *4598:Q 0.000263639
4 *1100:20 0.000363191
5 *4092:S *4822:A 8.41307e-05
6 *4100:S *1100:20 1.51732e-05
7 *4246:B *4822:A 8.52845e-05
8 *4246:C *4822:A 3.58091e-05
9 *4247:B1 *1100:20 0.000121541
10 *4247:C1 *1100:20 0.000117403
11 *4247:D1 *1100:20 3.86529e-05
12 *4248:B2 *1100:20 1.31821e-05
13 *4856:A *1100:20 0
14 *1003:52 *1100:20 6.51403e-05
15 *1003:58 *1100:20 1.23268e-05
16 *1005:36 *1100:20 2.20608e-05
17 *1011:94 *1100:20 0.000119866
18 *1019:89 *4822:A 2.49909e-05
*RES
1 *4598:Q *1100:20 15.06 
2 *1100:20 *4246:D 1.6 
3 *1100:20 *4822:A 3.775 
*END

*D_NET *1101 0.00358791
*CONN
*I *4117:A1 I *D sky130_fd_sc_hd__mux2_1
*I *4268:A1 I *D sky130_fd_sc_hd__a22o_2
*I *4109:A0 I *D sky130_fd_sc_hd__mux2_1
*I *4599:Q O *D sky130_fd_sc_hd__dfrtp_2
*CAP
1 *4117:A1 0
2 *4268:A1 0.000251937
3 *4109:A0 1.36534e-05
4 *4599:Q 6.99535e-05
5 *1101:27 0.000917107
6 *1101:10 0.000748777
7 *4268:A1 *4273:B2 0
8 *4070:A1 *4109:A0 4.66108e-05
9 *4070:A1 *4268:A1 0
10 *4070:A1 *1101:27 8.65961e-05
11 *4101:A0 *1101:10 4.76581e-05
12 *4109:S *4109:A0 4.66108e-05
13 *4109:S *1101:27 0.000207849
14 *4117:A0 *1101:27 0.000198939
15 *4117:S *1101:27 0.000362152
16 *4268:A2 *4268:A1 6.409e-05
17 *4268:B1 *4268:A1 0.000153956
18 *4615:CLK *1101:10 4.91189e-05
19 *4615:CLK *1101:27 2.75229e-05
20 *4974:A *4268:A1 4.40812e-05
21 *1043:26 *4268:A1 0.000178244
22 *1093:10 *1101:10 7.30547e-05
*RES
1 *4599:Q *1101:10 7.49 
2 *1101:10 *4109:A0 2.05 
3 *1101:10 *1101:27 11.64 
4 *1101:27 *4268:A1 11.03 
5 *1101:27 *4117:A1 1.6 
*END

*D_NET *1102 0.00174751
*CONN
*I *4943:A I *D sky130_fd_sc_hd__dlygate4sd3_1
*I *4310:D I *D sky130_fd_sc_hd__and4b_2
*I *4600:Q O *D sky130_fd_sc_hd__dfrtp_2
*CAP
1 *4943:A 0.00015651
2 *4310:D 0.00028294
3 *4600:Q 6.64034e-05
4 *1102:8 0.000505854
5 *4272:A2 *4310:D 0
6 *4272:A2 *4943:A 0
7 *4310:A_N *4310:D 5.31158e-06
8 *4310:B *4310:D 1.87841e-05
9 *4316:B2 *4310:D 0.00012919
10 *4600:CLK *1102:8 4.66826e-05
11 *4600:RESET_B *4310:D 0
12 *4608:CLK *4310:D 1.03755e-05
13 *4608:D *4310:D 0.000208484
14 *4608:D *4943:A 7.23602e-05
15 *4745:A *4943:A 0.000181383
16 *614:129 *4310:D 4.794e-05
17 *614:146 *4310:D 1.52862e-05
18 *1023:43 *4310:D 0
19 *1023:43 *4943:A 0
*RES
1 *4600:Q *1102:8 4.395 
2 *1102:8 *4310:D 9.945 
3 *1102:8 *4943:A 7.02 
*END

*D_NET *1103 0.00402528
*CONN
*I *4363:A1 I *D sky130_fd_sc_hd__a21oi_2
*I *4991:A I *D sky130_fd_sc_hd__dlygate4sd3_1
*I *4119:A1 I *D sky130_fd_sc_hd__mux2_1
*I *4601:Q O *D sky130_fd_sc_hd__dfrtp_2
*CAP
1 *4363:A1 0.000257392
2 *4991:A 0.000292918
3 *4119:A1 0.00032946
4 *4601:Q 0
5 *1103:6 0.000665465
6 *1103:4 0.000300479
7 *4363:B1 *4363:A1 6.60257e-06
8 *4364:C1 *4363:A1 0.000611714
9 *4374:A *4119:A1 4.35348e-05
10 *4601:RESET_B *4363:A1 0.000206447
11 *4601:RESET_B *1103:6 4.40889e-05
12 *4617:CLK *4119:A1 0.000354725
13 *4617:D *4119:A1 8.53113e-06
14 *4697:A *4119:A1 5.06544e-05
15 *4697:A *4363:A1 0.000170661
16 *3:34 *4991:A 0
17 *280:51 *4363:A1 1.3527e-05
18 *280:69 *4363:A1 4.89395e-05
19 *611:23 *4991:A 4.76239e-05
20 *699:53 *4363:A1 0.000117825
21 *891:26 *4363:A1 8.73389e-06
22 *891:26 *4991:A 6.27529e-05
23 *891:26 *1103:6 9.71251e-06
24 *985:16 *4991:A 0
25 *998:10 *4119:A1 2.95721e-05
26 *998:10 *4991:A 5.0652e-05
27 *998:18 *4119:A1 7.94119e-05
28 *998:48 *4363:A1 3.57349e-05
29 *998:48 *4991:A 1.91597e-05
30 *998:48 *1103:6 0.00015896
*RES
1 *4601:Q *1103:4 1.6 
2 *1103:4 *1103:6 1.485 
3 *1103:6 *4119:A1 12.2 
4 *1103:6 *4991:A 11.045 
5 *1103:4 *4363:A1 14.255 
*END

*D_NET *1104 0.00261603
*CONN
*I *4948:A I *D sky130_fd_sc_hd__dlygate4sd3_1
*I *4145:C I *D sky130_fd_sc_hd__and4b_2
*I *4602:Q O *D sky130_fd_sc_hd__dfrtp_2
*CAP
1 *4948:A 6.40055e-05
2 *4145:C 0.000334281
3 *4602:Q 0.000175209
4 *1104:10 0.000573495
5 *4145:B *4145:C 3.00381e-05
6 *4183:C1 *4145:C 0.000183043
7 *4697:A *4145:C 1.07797e-05
8 *626:12 *4145:C 0.000181376
9 *626:14 *4145:C 4.82919e-05
10 *626:90 *4145:C 0.000184712
11 *626:90 *4948:A 0.000161529
12 *899:10 *1104:10 3.86607e-05
13 *983:20 *1104:10 3.86529e-05
14 *1005:46 *1104:10 0
15 *1021:139 *1104:10 5.5164e-05
16 *1029:55 *4145:C 4.66108e-05
17 *1029:57 *4145:C 0.000276441
18 *1029:65 *4145:C 0.000163199
19 *1096:10 *4145:C 5.05437e-05
*RES
1 *4602:Q *1104:10 9.02 
2 *1104:10 *4145:C 14.42 
3 *1104:10 *4948:A 3.085 
*END

*D_NET *1105 0.00235064
*CONN
*I *4165:C I *D sky130_fd_sc_hd__and4b_2
*I *4802:A I *D sky130_fd_sc_hd__dlygate4sd3_1
*I *4603:Q O *D sky130_fd_sc_hd__dfrtp_2
*CAP
1 *4165:C 0.00038642
2 *4802:A 8.20314e-05
3 *4603:Q 0.000468451
4 *4113:A0 *4165:C 0.000183743
5 *4121:A1 *4165:C 5.53249e-06
6 *4164:B_N *4165:C 2.86623e-05
7 *4165:A_N *4165:C 0.000162311
8 *4165:D *4165:C 0.000278111
9 *4603:RESET_B *4802:A 0.000187381
10 *314:25 *4802:A 0.000138799
11 *706:73 *4165:C 0
12 *1012:22 *4165:C 0.00015482
13 *1021:30 *4165:C 0.00012657
14 *1029:45 *4165:C 0.000147811
*RES
1 *4603:Q *4802:A 6.065 
2 *4603:Q *4165:C 17.595 
*END

*D_NET *1106 0.00236477
*CONN
*I *4181:C I *D sky130_fd_sc_hd__and4b_2
*I *4971:A I *D sky130_fd_sc_hd__dlygate4sd3_1
*I *4604:Q O *D sky130_fd_sc_hd__dfrtp_2
*CAP
1 *4181:C 0.000422419
2 *4971:A 0.000208406
3 *4604:Q 0
4 *1106:6 0.000630825
5 *4122:A0 *4181:C 0.000161467
6 *4122:A1 *4181:C 2.23589e-05
7 *4180:C *4181:C 2.01565e-05
8 *4612:CLK *4971:A 0.000187759
9 *4612:RESET_B *4971:A 9.37731e-05
10 *705:8 *4181:C 0.000124895
11 *705:10 *4181:C 0.000132096
12 *705:10 *4971:A 9.78082e-05
13 *705:38 *4181:C 2.92496e-05
14 *1012:48 *4181:C 0.000233557
*RES
1 *4604:Q *1106:6 3.6 
2 *1106:6 *4971:A 8.295 
3 *1106:6 *4181:C 11.805 
*END

*D_NET *1107 0.00289623
*CONN
*I *4958:A I *D sky130_fd_sc_hd__dlygate4sd3_1
*I *4213:C I *D sky130_fd_sc_hd__and4b_2
*I *4123:A1 I *D sky130_fd_sc_hd__mux2_1
*I *4605:Q O *D sky130_fd_sc_hd__dfrtp_2
*CAP
1 *4958:A 0.000216757
2 *4213:C 0
3 *4123:A1 0.000466422
4 *4605:Q 0.00024114
5 *1107:10 0.000550993
6 *1107:8 0.000542468
7 *4211:A_N *4123:A1 1.73877e-05
8 *4211:B *4123:A1 4.43871e-06
9 *4211:B *4958:A 0.000118943
10 *4211:B *1107:10 6.73424e-05
11 *4214:B1 *4123:A1 0
12 *4214:B1 *4958:A 0
13 *4214:B1 *1107:10 0
14 *4214:D1 *4123:A1 7.09921e-05
15 *4597:RESET_B *4958:A 0.000249785
16 *4605:RESET_B *1107:8 8.72971e-05
17 *4613:D *4123:A1 6.5525e-05
18 *4816:A *4123:A1 7.33465e-05
19 *623:6 *4123:A1 4.82919e-05
20 *624:35 *1107:8 5.39956e-05
21 *992:12 *4123:A1 0
22 *1022:55 *4123:A1 0
23 *1099:10 *4958:A 2.11084e-05
*RES
1 *4605:Q *1107:8 6.465 
2 *1107:8 *1107:10 1.635 
3 *1107:10 *4123:A1 12.06 
4 *1107:10 *4213:C 3.6 
5 *1107:8 *4958:A 8.43 
*END

*D_NET *1108 0.00359545
*CONN
*I *4116:A0 I *D sky130_fd_sc_hd__mux2_1
*I *4242:C I *D sky130_fd_sc_hd__and4b_2
*I *4124:A1 I *D sky130_fd_sc_hd__mux2_1
*I *4606:Q O *D sky130_fd_sc_hd__dfrtp_2
*CAP
1 *4116:A0 0.000211674
2 *4242:C 4.63256e-05
3 *4124:A1 0.000337907
4 *4606:Q 0
5 *1108:19 0.000292135
6 *1108:6 0.000372042
7 *4116:A0 *1130:29 0.000142506
8 *4124:A1 *4181:D 0.000162943
9 *4116:A1 *4116:A0 2.93678e-05
10 *4116:S *4116:A0 8.60799e-05
11 *4124:A0 *4124:A1 4.66108e-05
12 *4242:B *4242:C 4.99619e-05
13 *4242:D *4242:C 8.65031e-05
14 *4243:A2 *4116:A0 0.000225626
15 *4243:A2 *4124:A1 0.000175207
16 *4243:A2 *1108:19 0.000116158
17 *4248:B1 *4116:A0 5.77827e-05
18 *279:21 *4124:A1 0.000182055
19 *982:34 *4124:A1 0.000286122
20 *1021:30 *4242:C 0.000196364
21 *1026:69 *4116:A0 2.23922e-05
22 *1026:69 *4124:A1 0.000183043
23 *1026:69 *1108:19 0.000106655
24 *1026:78 *4116:A0 0.000179987
*RES
1 *4606:Q *1108:6 3.6 
2 *1108:6 *4124:A1 10.995 
3 *1108:6 *1108:19 1.38 
4 *1108:19 *4242:C 5.43 
5 *1108:19 *4116:A0 9.555 
*END

*D_NET *1109 0.00195478
*CONN
*I *4973:A I *D sky130_fd_sc_hd__dlygate4sd3_1
*I *4269:C I *D sky130_fd_sc_hd__and4b_2
*I *4607:Q O *D sky130_fd_sc_hd__dfrtp_2
*CAP
1 *4973:A 0.00037822
2 *4269:C 0.000101599
3 *4607:Q 6.08656e-05
4 *1109:10 0.000540685
5 *4268:B2 *4269:C 4.66108e-05
6 *4268:B2 *4973:A 0.000446065
7 *4269:A_N *1109:10 5.00903e-05
8 *4269:B *4269:C 1.91597e-05
9 *4273:A1 *4973:A 6.90254e-05
10 *4940:A *1109:10 2.85623e-05
11 *4941:A *1109:10 4.41857e-05
12 *1008:35 *4269:C 1.08758e-05
13 *1093:10 *1109:10 0.000158839
*RES
1 *4607:Q *1109:10 7.745 
2 *1109:10 *4269:C 2.74 
3 *1109:10 *4973:A 11.225 
*END

*D_NET *1110 0.00169998
*CONN
*I *4126:A1 I *D sky130_fd_sc_hd__mux2_1
*I *4966:A I *D sky130_fd_sc_hd__dlygate4sd3_1
*I *4311:A1 I *D sky130_fd_sc_hd__a221o_2
*I *4608:Q O *D sky130_fd_sc_hd__dfrtp_2
*CAP
1 *4126:A1 0
2 *4966:A 0.000122392
3 *4311:A1 0
4 *4608:Q 0.000212445
5 *1110:18 0.000194307
6 *1110:12 0.00028436
7 *4118:A0 *4966:A 0
8 *4126:A0 *1110:12 0
9 *4126:A0 *1110:18 4.66108e-05
10 *4311:A2 *4966:A 6.35448e-05
11 *4311:B1 *1110:18 0.000166346
12 *4311:C1 *4966:A 0
13 *4316:B1 *1110:12 0.000296081
14 *4316:B1 *1110:18 0.000141606
15 *4608:RESET_B *1110:12 8.8266e-05
16 *991:66 *1110:18 8.40213e-05
17 *994:50 *4966:A 0
18 *994:50 *1110:18 0
*RES
1 *4608:Q *1110:12 9.815 
2 *1110:12 *1110:18 4.685 
3 *1110:18 *4311:A1 3.6 
4 *1110:18 *4966:A 6 
5 *1110:12 *4126:A1 1.6 
*END

*D_NET *1111 0.00431573
*CONN
*I *4127:A1 I *D sky130_fd_sc_hd__mux2_1
*I *4978:A I *D sky130_fd_sc_hd__dlygate4sd3_1
*I *4362:A1 I *D sky130_fd_sc_hd__a221o_2
*I *4609:Q O *D sky130_fd_sc_hd__dfrtp_2
*CAP
1 *4127:A1 0.000132023
2 *4978:A 0.000167719
3 *4362:A1 0.000729538
4 *4609:Q 3.53659e-05
5 *1111:25 0.000299742
6 *1111:6 0.000764903
7 *4111:S *4362:A1 1.01661e-05
8 *4127:A0 *4127:A1 4.82863e-05
9 *4183:A1 *4978:A 0.000191343
10 *4362:C1 *4362:A1 9.54469e-05
11 *4364:C1 *4127:A1 0.000280049
12 *4364:C1 *4978:A 0.000247293
13 *4365:B1 *4362:A1 0.000120186
14 *4369:C1 *4362:A1 0.000289983
15 *4609:CLK *4362:A1 9.02259e-05
16 *4609:RESET_B *4362:A1 7.69078e-05
17 *4609:RESET_B *1111:6 3.57349e-05
18 *4965:A *4127:A1 8.23457e-05
19 *280:51 *4127:A1 0.000287349
20 *280:51 *4978:A 0.000247293
21 *891:26 *4127:A1 4.16353e-05
22 *998:48 *4127:A1 4.21973e-05
*RES
1 *4609:Q *1111:6 2.05 
2 *1111:6 *4362:A1 16.865 
3 *1111:6 *1111:25 2 
4 *1111:25 *4978:A 8.34 
5 *1111:25 *4127:A1 8.505 
*END

*D_NET *1112 0.00314954
*CONN
*I *4987:A I *D sky130_fd_sc_hd__dlygate4sd3_1
*I *4148:B2 I *D sky130_fd_sc_hd__o32a_2
*I *4149:B2 I *D sky130_fd_sc_hd__o32ai_2
*I *4610:Q O *D sky130_fd_sc_hd__dfrtp_2
*CAP
1 *4987:A 0.00014608
2 *4148:B2 0.000535939
3 *4149:B2 2.72258e-05
4 *4610:Q 0.000208723
5 *1112:21 0.00071674
6 *1112:10 0.00027067
7 *4148:B1 *4148:B2 0.000337972
8 *4149:A3 *4148:B2 4.06977e-05
9 *4243:B1 *4987:A 0.000104203
10 *4610:RESET_B *1112:10 9.2741e-05
11 *280:34 *4148:B2 3.52139e-06
12 *295:16 *4148:B2 5.29198e-05
13 *297:12 *4149:B2 7.10578e-05
14 *429:22 *4987:A 0.000102029
15 *429:22 *1112:10 4.92096e-05
16 *429:22 *1112:21 1.44259e-05
17 *969:33 *4148:B2 1.91597e-05
18 *969:44 *4148:B2 0.000233004
19 *969:44 *4149:B2 0.000123225
20 *969:46 *1112:10 0
21 *969:70 *4987:A 0
*RES
1 *4610:Q *1112:10 6.72 
2 *1112:10 *4149:B2 4.74 
3 *1112:10 *1112:21 0.615 
4 *1112:21 *4148:B2 10.875 
5 *1112:21 *4987:A 7.02 
*END

*D_NET *1113 0.00236527
*CONN
*I *4121:A0 I *D sky130_fd_sc_hd__mux2_1
*I *4168:B2 I *D sky130_fd_sc_hd__o32ai_2
*I *4167:B2 I *D sky130_fd_sc_hd__o32a_2
*I *4611:Q O *D sky130_fd_sc_hd__dfrtp_2
*CAP
1 *4121:A0 0.000100119
2 *4168:B2 0
3 *4167:B2 0.000176086
4 *4611:Q 9.50082e-05
5 *1113:29 0.000215428
6 *1113:10 0.000386402
7 *4121:A1 *4121:A0 4.82919e-05
8 *4168:A2 *4167:B2 7.3664e-05
9 *4168:A3 *1113:10 4.9968e-05
10 *4168:B1 *4167:B2 0.000370649
11 *4168:B1 *1113:29 0.000146713
12 *4339:A1_N *1113:10 5.92269e-05
13 *315:10 *4121:A0 0.000161829
14 *315:10 *1113:29 7.00889e-06
15 *1012:38 *1113:10 0
16 *1026:36 *4121:A0 0.000413655
17 *1026:36 *1113:29 6.12198e-05
*RES
1 *4611:Q *1113:10 7.49 
2 *1113:10 *4167:B2 9.41 
3 *1113:10 *1113:29 2.55 
4 *1113:29 *4168:B2 1.6 
5 *1113:29 *4121:A0 5.5 
*END

*D_NET *1114 0.00260756
*CONN
*I *4187:B2 I *D sky130_fd_sc_hd__o32ai_2
*I *4186:B2 I *D sky130_fd_sc_hd__o32a_2
*I *4988:A I *D sky130_fd_sc_hd__dlygate4sd3_1
*I *4612:Q O *D sky130_fd_sc_hd__dfrtp_2
*CAP
1 *4187:B2 0
2 *4186:B2 0.000116927
3 *4988:A 8.81951e-05
4 *4612:Q 0.000294629
5 *1114:23 0.000335735
6 *1114:8 0.000601632
7 *4186:B2 *4181:D 9.72618e-05
8 *1114:8 *4181:D 6.73751e-05
9 *1114:23 *4181:D 7.18943e-05
10 *4114:S *1114:8 0
11 *4180:D *1114:8 6.65804e-05
12 *4185:A2 *4186:B2 0.000146108
13 *4604:D *1114:8 9.14049e-05
14 *333:10 *1114:23 0.000112196
15 *722:52 *4988:A 0.000114858
16 *847:22 *4186:B2 0.000231815
17 *988:10 *4186:B2 3.93775e-05
18 *1005:74 *4186:B2 0.000131567
19 *1005:74 *1114:8 0
*RES
1 *4612:Q *1114:8 9.06 
2 *1114:8 *4988:A 5.43 
3 *1114:8 *1114:23 6.23 
4 *1114:23 *4186:B2 9.92 
5 *1114:23 *4187:B2 1.6 
*END

*D_NET *1115 0.000923202
*CONN
*I *4815:A I *D sky130_fd_sc_hd__dlygate4sd3_1
*I *4215:A1_N I *D sky130_fd_sc_hd__a2bb2o_2
*I *4613:Q O *D sky130_fd_sc_hd__dfrtp_2
*CAP
1 *4815:A 0.000106555
2 *4215:A1_N 0.000206673
3 *4613:Q 0
4 *1115:6 0.000313228
5 *4043:A1 *4815:A 0
6 *4215:A2_N *4215:A1_N 3.90291e-05
7 *4487:A1 *4215:A1_N 0
8 *4487:A1 *4815:A 0
9 *4613:RESET_B *4215:A1_N 0
10 *994:29 *4215:A1_N 8.71079e-05
11 *994:29 *4815:A 0.000129056
12 *1034:14 *4215:A1_N 4.15527e-05
*RES
1 *4613:Q *1115:6 3.6 
2 *1115:6 *4215:A1_N 7.6425 
3 *1115:6 *4815:A 6.255 
*END

*D_NET *1116 0.00206905
*CONN
*I *4248:A1 I *D sky130_fd_sc_hd__o22ai_2
*I *4959:A I *D sky130_fd_sc_hd__dlygate4sd3_1
*I *4614:Q O *D sky130_fd_sc_hd__dfrtp_2
*CAP
1 *4248:A1 0.00016241
2 *4959:A 0.000140906
3 *4614:Q 0
4 *1116:6 0.000303316
5 *4124:S *4959:A 0
6 *4242:D *4248:A1 6.60042e-05
7 *4247:A2 *4248:A1 9.23395e-05
8 *4247:A2 *4959:A 9.34773e-06
9 *4598:RESET_B *4248:A1 0.000279493
10 *4606:CLK *4248:A1 0.000108322
11 *4606:CLK *4959:A 5.16418e-05
12 *4823:A *4248:A1 0.000231596
13 *705:38 *4248:A1 9.50342e-06
14 *705:38 *4959:A 0.000221744
15 *982:34 *4959:A 4.82863e-05
16 *1021:30 *4248:A1 0.000344134
*RES
1 *4614:Q *1116:6 3.6 
2 *1116:6 *4959:A 6.705 
3 *1116:6 *4248:A1 10.23 
*END

*D_NET *1117 0.00225764
*CONN
*I *4273:B2 I *D sky130_fd_sc_hd__o32ai_2
*I *4977:A I *D sky130_fd_sc_hd__dlygate4sd3_1
*I *4615:Q O *D sky130_fd_sc_hd__dfrtp_2
*CAP
1 *4273:B2 0.000267016
2 *4977:A 0.00016973
3 *4615:Q 7.03287e-05
4 *1117:8 0.000507075
5 *3987:S *4977:A 0.000203178
6 *4117:S *1117:8 4.41506e-05
7 *4125:A1 *4273:B2 8.29003e-05
8 *4125:A1 *4977:A 0.000248254
9 *4268:A1 *4273:B2 0
10 *4268:B1 *4273:B2 8.05834e-06
11 *4268:B2 *4273:B2 3.41176e-05
12 *4273:A2 *4273:B2 4.41506e-05
13 *4488:D *4977:A 0.000196232
14 *4699:A *4977:A 1.26548e-05
15 *4974:A *4273:B2 6.28765e-05
16 *928:10 *4273:B2 0.000306916
17 *991:18 *4977:A 0
*RES
1 *4615:Q *1117:8 4.395 
2 *1117:8 *4977:A 8.85 
3 *1117:8 *4273:B2 9.45 
*END

*D_NET *1118 0.000971771
*CONN
*I *4961:A I *D sky130_fd_sc_hd__dlygate4sd3_1
*I *4316:A1 I *D sky130_fd_sc_hd__o22ai_2
*I *4616:Q O *D sky130_fd_sc_hd__dfrtp_2
*CAP
1 *4961:A 5.00572e-05
2 *4316:A1 9.05342e-05
3 *4616:Q 3.78258e-05
4 *1118:8 0.000178417
5 *4316:A2 *4316:A1 8.53011e-05
6 *4845:A *4316:A1 3.09164e-05
7 *4845:A *4961:A 4.82919e-05
8 *4845:A *1118:8 0.000118527
9 *614:170 *4316:A1 8.41384e-05
10 *991:62 *4316:A1 6.89e-05
11 *1032:54 *4316:A1 0.000115197
12 *1032:54 *1118:8 1.1561e-05
13 *1032:64 *1118:8 5.21046e-05
*RES
1 *4616:Q *1118:8 4.98 
2 *1118:8 *4316:A1 6.795 
3 *1118:8 *4961:A 4.395 
*END

*D_NET *1119 0.00210912
*CONN
*I *4964:A I *D sky130_fd_sc_hd__dlygate4sd3_1
*I *3964:A I *D sky130_fd_sc_hd__inv_2
*I *4617:Q O *D sky130_fd_sc_hd__dfrtp_2
*CAP
1 *4964:A 0.000327454
2 *3964:A 0.000219796
3 *4617:Q 8.95783e-05
4 *1119:6 0.000636828
5 *4184:B1 *3964:A 8.05768e-05
6 *4373:B *4964:A 2.67022e-05
7 *4374:A *1119:6 2.0514e-05
8 *289:37 *3964:A 1.52184e-05
9 *289:37 *4964:A 0.000366749
10 *289:37 *1119:6 8.49205e-05
11 *332:8 *4964:A 0
12 *983:20 *4964:A 0.000115254
13 *1005:59 *3964:A 0.000125533
*RES
1 *4617:Q *1119:6 2.74 
2 *1119:6 *3964:A 10.085 
3 *1119:6 *4964:A 10.535 
*END

*D_NET *1120 0.00514577
*CONN
*I *4467:A0 I *D sky130_fd_sc_hd__mux2_1
*I *5010:A I *D sky130_fd_sc_hd__dlygate4sd3_1
*I *4459:A1 I *D sky130_fd_sc_hd__mux2_1
*I *4658:Q O *D sky130_fd_sc_hd__dfrtp_2
*CAP
1 *4467:A0 0.000529982
2 *5010:A 0.000659554
3 *4459:A1 0.000601109
4 *4658:Q 0.000539338
5 *1120:8 0.00127002
6 *4451:A0 *5010:A 0
7 *4451:A1 *4467:A0 4.99619e-05
8 *4650:CLK *5010:A 0.000434841
9 *4650:RESET_B *5010:A 2.40101e-05
10 *4658:CLK *4459:A1 8.97564e-05
11 *4658:D *1120:8 0.000122331
12 *4830:A *4459:A1 0.000130065
13 *4830:A *4467:A0 0.000134314
14 *4830:A *5010:A 3.86607e-05
15 *4831:A *5010:A 0
16 *4884:A *4467:A0 5.43869e-05
17 *260:55 *4459:A1 3.04982e-05
18 *260:55 *5010:A 0.0002318
19 *628:50 *5010:A 1.61831e-05
20 *768:6 *4467:A0 0.000188957
*RES
1 *4658:Q *1120:8 9.57 
2 *1120:8 *4459:A1 6.255 
3 *1120:8 *5010:A 16.17 
4 *4459:A1 *4467:A0 11.93 
*END

*D_NET *1121 0.00351708
*CONN
*I *4468:A0 I *D sky130_fd_sc_hd__mux2_1
*I *4460:A1 I *D sky130_fd_sc_hd__mux2_1
*I *5011:A I *D sky130_fd_sc_hd__dlygate4sd3_1
*I *4659:Q O *D sky130_fd_sc_hd__dfrtp_2
*CAP
1 *4468:A0 0.000527566
2 *4460:A1 0.000300181
3 *5011:A 0.000764227
4 *4659:Q 0
5 *1121:6 0.00106441
6 *1121:4 0.000527566
7 *4451:S *4460:A1 0
8 *4452:A1 *4468:A0 9.23864e-05
9 *4651:CLK *5011:A 2.75229e-05
10 *4651:RESET_B *5011:A 2.86869e-05
11 *4659:CLK *4468:A0 5.30673e-05
12 *4821:A *4460:A1 3.94592e-05
13 *258:116 *4468:A0 9.20116e-05
14 *263:43 *4460:A1 0
15 *263:43 *5011:A 0
16 *717:64 *4460:A1 0
17 *717:64 *5011:A 0
18 *717:73 *4460:A1 0
*RES
1 *4659:Q *1121:4 1.6 
2 *1121:4 *1121:6 2 
3 *1121:6 *5011:A 12.6 
4 *1121:6 *4460:A1 8.01 
5 *1121:4 *4468:A0 10.345 
*END

*D_NET *1122 0.00658155
*CONN
*I *4469:A0 I *D sky130_fd_sc_hd__mux2_1
*I *4461:A1 I *D sky130_fd_sc_hd__mux2_1
*I *4395:A1 I *D sky130_fd_sc_hd__a22o_2
*I *4660:Q O *D sky130_fd_sc_hd__dfrtp_2
*CAP
1 *4469:A0 0
2 *4461:A1 0
3 *4395:A1 0.00184049
4 *4660:Q 0.000144297
5 *1122:14 0.00239048
6 *1122:12 0.000694284
7 *4453:S *4395:A1 0.000198945
8 *4461:S *4395:A1 1.83756e-05
9 *4461:S *1122:14 3.64998e-06
10 *4628:RESET_B *4395:A1 2.86265e-06
11 *4636:CLK *4395:A1 0.000471317
12 *4636:RESET_B *4395:A1 9.71251e-06
13 *4644:RESET_B *4395:A1 3.67779e-05
14 *4652:D *4395:A1 0.000114492
15 *4813:A *1122:14 3.9853e-05
16 *5002:A *4395:A1 0.000116001
17 *5043:A *1122:12 3.86529e-05
18 *258:45 *1122:14 1.61831e-05
19 *258:53 *1122:12 0.000163199
20 *258:53 *1122:14 0.000124007
21 *263:43 *4395:A1 0
22 *629:118 *4395:A1 0.000157968
23 *717:47 *4395:A1 0
24 *717:54 *4395:A1 0
25 *721:100 *1122:12 0
*RES
1 *4660:Q *1122:12 7.955 
2 *1122:12 *1122:14 6.315 
3 *1122:14 *4395:A1 29.6 
4 *1122:14 *4461:A1 1.6 
5 *1122:12 *4469:A0 1.6 
*END

*D_NET *1123 0.00338784
*CONN
*I *4470:A0 I *D sky130_fd_sc_hd__mux2_1
*I *4462:A1 I *D sky130_fd_sc_hd__mux2_1
*I *5012:A I *D sky130_fd_sc_hd__dlygate4sd3_1
*I *4661:Q O *D sky130_fd_sc_hd__dfrtp_2
*CAP
1 *4470:A0 0.000671481
2 *4462:A1 0
3 *5012:A 0.000313587
4 *4661:Q 0.000767116
5 *1123:12 0.000409222
6 *4445:A1 *1123:12 0.000198945
7 *4453:A0 *1123:12 0.000118527
8 *4462:S *1123:12 0.000123225
9 *4470:S *4470:A0 2.75229e-05
10 *4661:CLK *4470:A0 1.76834e-05
11 *4669:RESET_B *4470:A0 0.000154801
12 *4826:A *4470:A0 0.000123189
13 *4857:A *5012:A 0.00018471
14 *4929:A *4470:A0 1.26173e-05
15 *260:72 *1123:12 5.21046e-05
16 *260:80 *5012:A 7.97165e-05
17 *260:80 *1123:12 1.52184e-05
18 *717:33 *4470:A0 0.000118178
*RES
1 *4661:Q *1123:12 8.81 
2 *1123:12 *5012:A 11.555 
3 *1123:12 *4462:A1 1.6 
4 *4661:Q *4470:A0 11.585 
*END

*D_NET *1124 0.00853147
*CONN
*I *4471:A0 I *D sky130_fd_sc_hd__mux2_1
*I *4463:A1 I *D sky130_fd_sc_hd__mux2_1
*I *4397:A1 I *D sky130_fd_sc_hd__a22o_2
*I *4662:Q O *D sky130_fd_sc_hd__dfrtp_2
*CAP
1 *4471:A0 0.000216525
2 *4463:A1 0.0003572
3 *4397:A1 0.00225151
4 *4662:Q 0.00072113
5 *1124:12 0.00311332
6 *4397:B1 *4397:A1 5.31158e-06
7 *4427:A *4397:A1 0.000233604
8 *4432:A1 *4397:A1 3.51927e-05
9 *4455:A1 *4471:A0 0
10 *4455:A1 *1124:12 1.83463e-05
11 *4456:S *4397:A1 1.91597e-05
12 *4463:A0 *4463:A1 3.00381e-05
13 *4465:S *4397:A1 0
14 *4471:S *4471:A0 4.80285e-05
15 *4632:D *4397:A1 3.46092e-05
16 *4639:D *4397:A1 8.64599e-05
17 *4647:CLK *4397:A1 0.000372845
18 *4654:D *4463:A1 0
19 *4662:CLK *4463:A1 0
20 *4662:D *4463:A1 0
21 *4662:D *1124:12 0.00011964
22 *4662:RESET_B *1124:12 4.20162e-05
23 *4670:CLK *4463:A1 0
24 *4670:D *4471:A0 9.54399e-05
25 *4671:CLK *4397:A1 0.000149088
26 *4800:A *4397:A1 4.90227e-05
27 *4825:A *4397:A1 0
28 *4825:A *4463:A1 0
29 *4897:A *4471:A0 0
30 *5040:A *4397:A1 4.06726e-05
31 *260:93 *4397:A1 0
32 *260:93 *4463:A1 0
33 *263:51 *4463:A1 0
34 *263:61 *4397:A1 0.000157646
35 *616:177 *4397:A1 0.000136809
36 *721:27 *4397:A1 0.000197862
*RES
1 *4662:Q *1124:12 9.9075 
2 *1124:12 *4397:A1 42.2875 
3 *1124:12 *4463:A1 9.2175 
4 *4662:Q *4471:A0 10.5 
*END

*D_NET *1125 0.00319688
*CONN
*I *4472:A0 I *D sky130_fd_sc_hd__mux2_1
*I *4464:A1 I *D sky130_fd_sc_hd__mux2_1
*I *5003:A I *D sky130_fd_sc_hd__dlygate4sd3_1
*I *4663:Q O *D sky130_fd_sc_hd__dfrtp_2
*CAP
1 *4472:A0 0.000146505
2 *4464:A1 0
3 *5003:A 0.000290703
4 *4663:Q 0
5 *1125:14 0.000699565
6 *1125:4 0.000555366
7 *4472:A1 *4472:A0 0.000291942
8 *4654:D *5003:A 1.19028e-05
9 *4663:RESET_B *4472:A0 3.57349e-05
10 *4663:RESET_B *1125:14 0.000113537
11 *4671:CLK *5003:A 0.000235382
12 *4671:CLK *1125:14 0.000309804
13 *4671:D *1125:14 3.14077e-05
14 *4825:A *5003:A 0.000137452
15 *258:70 *4472:A0 1.34361e-05
16 *715:55 *4472:A0 9.24881e-05
17 *715:62 *4472:A0 0.000231659
*RES
1 *4663:Q *1125:4 1.6 
2 *1125:4 *1125:14 10.51 
3 *1125:14 *5003:A 6.895 
4 *1125:14 *4464:A1 1.6 
5 *1125:4 *4472:A0 10.07 
*END

*D_NET *1126 0.00549735
*CONN
*I *4473:A0 I *D sky130_fd_sc_hd__mux2_1
*I *4465:A1 I *D sky130_fd_sc_hd__mux2_1
*I *4399:A1 I *D sky130_fd_sc_hd__a22o_2
*I *4664:Q O *D sky130_fd_sc_hd__dfrtp_2
*CAP
1 *4473:A0 6.19939e-05
2 *4465:A1 0
3 *4399:A1 0.000814674
4 *4664:Q 0.000123239
5 *1126:16 0.00128834
6 *1126:12 0.000658902
7 uio_out[4] *1126:12 6.08203e-05
8 *4435:B *4399:A1 0.000240942
9 *4448:A1 *4399:A1 4.99619e-05
10 *4456:A0 *4399:A1 9.04668e-05
11 *4457:S *4399:A1 1.26548e-05
12 *4465:A0 *1126:16 8.65905e-05
13 *4465:S *4399:A1 4.82863e-05
14 *4465:S *1126:16 0.000159867
15 *4655:D *4399:A1 7.01132e-05
16 *4671:D *1126:12 9.37731e-05
17 *616:6 *4399:A1 0.000530207
18 *616:15 *4399:A1 0.000169695
19 *616:58 *4399:A1 0.000141604
20 *616:86 *4399:A1 0.000185208
21 *616:97 *4399:A1 7.88805e-05
22 *616:101 *4399:A1 0
23 *714:8 *4399:A1 0.00025935
24 *715:38 *1126:12 0.000138041
25 *721:35 *4399:A1 0.000133739
*RES
1 *4664:Q *1126:12 7.865 
2 *1126:12 *1126:16 7.365 
3 *1126:16 *4399:A1 26.12 
4 *1126:16 *4465:A1 1.6 
5 *1126:12 *4473:A0 2.395 
*END

*D_NET *1127 0.00215169
*CONN
*I *4466:A1 I *D sky130_fd_sc_hd__mux2_1
*I *4981:A I *D sky130_fd_sc_hd__dlygate4sd3_1
*I *4474:A0 I *D sky130_fd_sc_hd__mux2_1
*I *4665:Q O *D sky130_fd_sc_hd__dfrtp_2
*CAP
1 *4466:A1 0
2 *4981:A 0.000208493
3 *4474:A0 0.00019392
4 *4665:Q 0
5 *1127:19 0.000388365
6 *1127:4 0.000373792
7 *4440:B *4474:A0 0.000152203
8 *4440:B *4981:A 0
9 *4466:A0 *1127:19 4.99619e-05
10 *4466:S *4981:A 0.000328067
11 *4474:A1 *4474:A0 0.000124007
12 *4474:S *4474:A0 0
13 *4665:RESET_B *4474:A0 0
14 *4673:D *4474:A0 0.000183043
15 *4906:A *1127:19 2.75145e-05
16 *617:99 *4474:A0 0.000122325
*RES
1 *4665:Q *1127:4 1.6 
2 *1127:4 *4474:A0 11.18 
3 *1127:4 *1127:19 2.865 
4 *1127:19 *4981:A 9.98 
5 *1127:19 *4466:A1 1.6 
*END

*D_NET *1128 0.0298373
*CONN
*I *4181:A_N I *D sky130_fd_sc_hd__and4b_2
*I *4180:B I *D sky130_fd_sc_hd__and4b_2
*I *4773:A I *D sky130_fd_sc_hd__clkdlybuf4s25_1
*I *4776:A I *D sky130_fd_sc_hd__clkdlybuf4s25_1
*I *4674:Q O *D sky130_fd_sc_hd__dfrtp_2
*CAP
1 *4181:A_N 0
2 *4180:B 0.000432731
3 *4773:A 0.0030153
4 *4776:A 9.89315e-05
5 *4674:Q 0.00279541
6 *1128:53 0.00554467
7 *1128:26 0.0108237
8 *4773:A *4759:A 0
9 *1128:53 *4181:D 0.000159507
10 *4073:A1 *1128:26 0.000144282
11 *4114:S *1128:53 1.00941e-05
12 *4122:A1 *4180:B 1.10085e-05
13 *4180:C *4180:B 0.000105592
14 *4180:D *4180:B 0.00022007
15 *4185:C1 *4180:B 1.33293e-05
16 *4748:A *4773:A 0.00236032
17 *4748:A *1128:26 0.00166612
18 *4755:A *1128:26 0.000147944
19 *4775:A *1128:26 0.000147944
20 *5027:A *4773:A 0
21 *5030:A *4773:A 0
22 *3:30 *4773:A 0.00155553
23 *265:12 *4773:A 0
24 *305:16 *1128:53 0.000218261
25 *627:80 *1128:26 0.000124592
26 *1012:48 *4180:B 4.30188e-05
27 *1025:14 *4773:A 0
28 *1029:8 *4776:A 0.000198939
*RES
1 *4674:Q *4776:A 5.39 
2 *4674:Q *1128:26 12.1642 
3 *1128:26 *4773:A 16.4402 
4 *1128:26 *1128:53 11.7948 
5 *1128:53 *4180:B 7.765 
6 *1128:53 *4181:A_N 1.6 
*END

*D_NET *1129 0.0251981
*CONN
*I *4768:A I *D sky130_fd_sc_hd__clkdlybuf4s25_1
*I *4769:A I *D sky130_fd_sc_hd__clkdlybuf4s25_1
*I *4181:D I *D sky130_fd_sc_hd__and4b_2
*I *4766:A I *D sky130_fd_sc_hd__clkdlybuf4s25_1
*I *4675:Q O *D sky130_fd_sc_hd__dfrtp_2
*CAP
1 *4768:A 0.000194377
2 *4769:A 0
3 *4181:D 0.00143795
4 *4766:A 0.00362334
5 *4675:Q 0.000173866
6 *1129:50 0.000299808
7 *1129:16 0.00823488
8 *1129:10 0.00345289
9 *4766:A *4759:A 0
10 *4029:A1 *4766:A 0
11 *4055:A *4766:A 0
12 *4124:A1 *4181:D 0.000162943
13 *4139:D *4766:A 0
14 *4140:A2 *4766:A 0.00206473
15 *4180:C *4181:D 8.69583e-05
16 *4185:A2 *4181:D 6.40069e-05
17 *4185:B1 *4181:D 0
18 *4185:C1 *4181:D 0
19 *4186:B2 *4181:D 9.72618e-05
20 *4242:B *4181:D 0.000364675
21 *4243:B1 *4181:D 0
22 *4317:A *4181:D 0.000207838
23 *4320:A2 *4181:D 0.00030607
24 *4372:A *4181:D 0.000590892
25 *4379:A *4181:D 0
26 *4379:B *4181:D 0
27 *4476:C *1129:10 0.000162311
28 *4477:A2 *1129:50 0
29 *4610:RESET_B *4181:D 0
30 *4674:RESET_B *1129:16 0
31 *4674:RESET_B *1129:50 0
32 *4758:A *4766:A 0
33 *5056:A *4181:D 0
34 *272:10 *4766:A 0
35 *279:10 *4181:D 7.81954e-05
36 *279:21 *4181:D 0.000131662
37 *305:16 *4181:D 0.0012331
38 *532:18 *1129:16 0.000360349
39 *725:27 *4766:A 0
40 *982:85 *4766:A 0.000536666
41 *988:10 *4181:D 0.000111054
42 *1009:14 *4766:A 0
43 *1010:24 *4766:A 0
44 *1020:14 *4768:A 2.75229e-05
45 *1021:8 *1129:16 0
46 *1021:8 *1129:50 0
47 *1025:14 *4766:A 0
48 *1026:69 *4181:D 0.000539125
49 *1026:78 *4181:D 0.000324965
50 *1026:89 *4181:D 3.18735e-05
51 *1027:12 *1129:50 0
52 *1114:8 *4181:D 6.73751e-05
53 *1114:23 *4181:D 7.18943e-05
54 *1128:53 *4181:D 0.000159507
*RES
1 *4675:Q *1129:10 5.88 
2 *1129:10 *1129:16 6.9687 
3 *1129:16 *4766:A 18.5094 
4 *1129:16 *4181:D 44.4425 
5 *1129:10 *1129:50 3.635 
6 *1129:50 *4769:A 1.6 
7 *1129:50 *4768:A 4.465 
*END

*D_NET *1130 0.0188034
*CONN
*I *4762:A I *D sky130_fd_sc_hd__clkdlybuf4s25_1
*I *4759:A I *D sky130_fd_sc_hd__clkdlybuf4s25_1
*I *4761:A I *D sky130_fd_sc_hd__clkdlybuf4s25_1
*I *4676:Q O *D sky130_fd_sc_hd__dfrtp_2
*CAP
1 *4762:A 0.000119107
2 *4759:A 0.00308977
3 *4761:A 0
4 *4676:Q 0.000108323
5 *1130:29 0.00492428
6 *1130:27 0.00251932
7 *1130:8 0.000912235
8 *4759:A *5000:A 0.000198755
9 *4055:A *4759:A 4.12825e-05
10 *4116:A0 *1130:29 0.000142506
11 *4116:A1 *1130:29 8.10191e-05
12 *4116:S *1130:29 0.000272485
13 *4140:A2 *4759:A 0.000364226
14 *4144:C *4759:A 4.27658e-05
15 *4147:A1 *4759:A 0
16 *4163:A2 *1130:27 1.47256e-05
17 *4243:A1 *1130:29 0.000119479
18 *4243:A2 *1130:29 0.000478509
19 *4478:C *1130:27 1.12578e-05
20 *4675:RESET_B *1130:27 5.64226e-05
21 *4676:RESET_B *1130:8 0
22 *4676:RESET_B *1130:27 0
23 *4766:A *4759:A 0
24 *4773:A *4759:A 0
25 *4790:A *4759:A 4.70343e-05
26 *3:30 *4759:A 0.000726911
27 *567:6 *1130:27 0.00023468
28 *725:29 *4759:A 6.10392e-05
29 *800:14 *4759:A 0
30 *999:16 *4762:A 0
31 *1011:22 *1130:27 1.77833e-05
32 *1011:30 *1130:27 0.000158916
33 *1011:30 *1130:29 0.000953086
34 *1020:20 *1130:27 0.00124835
35 *1021:30 *1130:27 0.00139733
36 *1021:46 *4762:A 0
37 *1048:16 *4759:A 0.000205363
38 *1060:12 *1130:29 0.000256469
*RES
1 *4676:Q *1130:8 5.235 
2 *1130:8 *4761:A 3.6 
3 *1130:8 *1130:27 23.855 
4 *1130:27 *1130:29 29.775 
5 *1130:29 *4759:A 24.4837 
6 *1130:29 *4762:A 7.49 
*END

*D_NET *1131 0.000877832
*CONN
*I *4842:A I *D sky130_fd_sc_hd__dlygate4sd3_1
*I *4684:Q O *D sky130_fd_sc_hd__dfrtp_2
*CAP
1 *4842:A 0.000332906
2 *4684:Q 0.000332906
3 *4064:A1 *4842:A 0
4 *4684:RESET_B *4842:A 1.7386e-05
5 *3:30 *4842:A 3.55351e-05
6 *984:10 *4842:A 6.86498e-05
7 *984:16 *4842:A 9.04502e-05
*RES
1 *4684:Q *4842:A 13.11 
*END

*D_NET *1132 0.000209426
*CONN
*I *4843:A I *D sky130_fd_sc_hd__dlygate4sd3_1
*I *4685:Q O *D sky130_fd_sc_hd__dfrtp_2
*CAP
1 *4843:A 7.42091e-05
2 *4685:Q 7.42091e-05
3 *4064:A1 *4843:A 0
4 *1000:22 *4843:A 6.10082e-05
*RES
1 *4685:Q *4843:A 8.58 
*END

*D_NET *1133 0.000122413
*CONN
*I *4854:A I *D sky130_fd_sc_hd__dlygate4sd3_1
*I *4686:Q O *D sky130_fd_sc_hd__dfrtp_2
*CAP
1 *4854:A 1.60272e-05
2 *4686:Q 1.60272e-05
3 *4484:A0 *4854:A 5.30673e-05
4 *619:38 *4854:A 3.72916e-05
*RES
1 *4686:Q *4854:A 3.995 
*END

*D_NET *1134 0.000608049
*CONN
*I *4847:A I *D sky130_fd_sc_hd__dlygate4sd3_1
*I *4687:Q O *D sky130_fd_sc_hd__dfrtp_2
*CAP
1 *4847:A 0.000304024
2 *4687:Q 0.000304024
3 *993:56 *4847:A 0
*RES
1 *4687:Q *4847:A 11.865 
*END

*D_NET *1135 0.00626314
*CONN
*I *5000:A I *D sky130_fd_sc_hd__dlygate4sd3_1
*I *4688:Q O *D sky130_fd_sc_hd__dfrtp_2
*CAP
1 *5000:A 0.00114023
2 *4688:Q 0.00114023
3 *4008:A_N *5000:A 8.40269e-05
4 *4008:B *5000:A 0.000103775
5 *4008:C *5000:A 0.000106294
6 *4135:A_N *5000:A 0.000113255
7 *4482:A1 *5000:A 0.000313857
8 *4486:A0 *5000:A 0.000181005
9 *4704:A *5000:A 4.82919e-05
10 *4717:A *5000:A 0
11 *4759:A *5000:A 0.000198755
12 *266:10 *5000:A 3.91477e-05
13 *267:24 *5000:A 0
14 *270:46 *5000:A 8.65905e-05
15 *270:56 *5000:A 0.00057596
16 *625:10 *5000:A 0
17 *625:20 *5000:A 8.61056e-05
18 *1025:14 *5000:A 0.00143643
19 *1048:16 *5000:A 0.000609187
*RES
1 *4688:Q *5000:A 38.61 
*END

*D_NET *1136 0.000650442
*CONN
*I *4798:A I *D sky130_fd_sc_hd__dlygate4sd3_1
*I *4689:Q O *D sky130_fd_sc_hd__dfrtp_2
*CAP
1 *4798:A 0.000238631
2 *4689:Q 0.000238631
3 *4069:A0 *4798:A 0
4 *4134:C_N *4798:A 0
5 *4215:B1 *4798:A 8.65905e-05
6 *4559:RESET_B *4798:A 0
7 *4613:RESET_B *4798:A 0
8 *733:10 *4798:A 0
9 *992:12 *4798:A 0
10 *1034:14 *4798:A 8.65905e-05
*RES
1 *4689:Q *4798:A 11.415 
*END

*D_NET *1137 0.000397936
*CONN
*I *4976:A I *D sky130_fd_sc_hd__dlygate4sd3_1
*I *4488:Q O *D sky130_fd_sc_hd__dfrtp_2
*CAP
1 *4976:A 0.000162801
2 *4488:Q 0.000162801
3 *3987:A0 *4976:A 6.74079e-05
4 *1006:22 *4976:A 4.9253e-06
5 *1037:65 *4976:A 0
*RES
1 *4488:Q *4976:A 10.065 
*END

*D_NET *1138 0.000173517
*CONN
*I *4846:A I *D sky130_fd_sc_hd__dlygate4sd3_1
*I *4489:Q O *D sky130_fd_sc_hd__dfrtp_2
*CAP
1 *4846:A 8.67587e-05
2 *4489:Q 8.67587e-05
3 *3988:A0 *4846:A 0
4 *4071:S *4846:A 0
5 *4561:D *4846:A 0
*RES
1 *4489:Q *4846:A 8.58 
*END
